K-Path Generated by VASPKIT.
   30
Line-Mode
Reciprocal
    0.00000000    0.00000000    0.00000000      !G
    0.50000000    0.50000000    0.00000000      !S
    
    0.50000000    0.50000000    0.00000000      !S
    0.50000000    0.00000000    0.00000000      !X
    
    0.50000000    0.00000000    0.00000000      !X
    0.00000000    0.00000000    0.00000000      !G
    
    0.00000000    0.00000000    0.00000000      !G
    0.00000000    0.50000000    0.00000000      !Y
