generated by phonopy
   1.0
     3.9463540381299027    0.0000000000000000    0.0000000000000000
    -1.0377512533092046    3.8129426777918738    0.0000000000000000
    -0.4855556430405497   -1.0926749922313657    9.2715685357563853
C Li
   2    2
Direct
  0.3694190010978478  0.3684077933615441  1.0005321611302026
  0.6305809989021522  0.6315922066384558  0.9994678388697974
  0.1840628016713304  0.8427143926834783  1.0570044230915214
  0.8159371983286696  0.1572856073165217  0.9429955769084786
