POSCAR Gen by MATLAB
1
  3.978575  0.001519  0.490139
  1.780868  12.142709  1.788558
  -0.009841  -0.001448  25.602777
S Tl 
  6 6 
Direct
  0.284803  0.847610  0.368237  
  0.715197  0.152390  0.262372  
  0.344868  0.898147  0.254455  
  0.655132  0.101853  0.376154  
  0.954621  0.616057  0.297595  
  0.045379  0.383943  0.333014  
  0.467846  0.688527  0.234751  
  0.532154  0.311473  0.395858  
  0.161813  0.000772  0.431488  
  0.838187  0.999228  0.199121  
  0.836119  0.710494  0.389280  
  0.163881  0.289506  0.241329  
  