generated by phonopy
   1.0
     6.7600002288805623    0.0000000000000000    0.0000000000000000
    -3.3800001144402811    5.8543319277991861    0.0000000000000000
     0.0000000000000000    0.0000000000000000   17.0000000000000000
C
  12
Direct
  0.4541906375847450  0.1261238487036668  0.0000000000000000
  0.6719332111189218  0.1261238487036668  0.0000000000000000
  0.8738761512963332  0.3280667888810782  0.0000000000000000
  0.8738761512963332  0.5458093624152550  0.0000000000000000
  0.3280667888810782  0.8738761512963332  0.0000000000000000
  0.5458093624152550  0.8738761512963332  0.0000000000000000
  0.1261238487036668  0.6719332111189218  0.0000000000000000
  0.1261238487036668  0.4541906375847450  0.0000000000000000
  0.5458093624152550  0.6719332111189218  0.0000000000000000
  0.3280667888810782  0.4541906375847450  0.0000000000000000
  0.6719332111189218  0.5458093624152550  0.0000000000000000
  0.4541906375847450  0.3280667888810782  0.0000000000000000
