generated by phonopy
   1.0
     3.6400001048999999    0.0000000000000000    0.0000000000000000
     0.0000000000000000    3.6400001048999999    0.0000000000000000
     0.0000000000000000    0.0000000000000000   17.0000000000000000
C
   6
Direct
  0.0000000000000000  0.0000000000000000  0.5000000000000000
  0.5000000000000000  0.5000000000000000  0.5000000000000000
  0.8699257780667692  0.3699257780667692  0.5355126284039623
  0.6300742219332308  0.8699257780667692  0.4644873715960377
  0.3699257780667692  0.1300742219332308  0.4644873715960377
  0.1300742219332308  0.6300742219332308  0.5355126284039623
