generated by phonopy
   1.0
    10.3205041885104620    0.0000000000000000    0.0000000000000000
    -5.1602520942552310    8.9378188071137625    0.0000000000000000
     0.0000000000000000    0.0000000000000000   14.0000000000000000
C
  18
Direct
  0.1806483345000000  0.0000000000000000  0.0000000000000000
  0.3161252665000003  0.0000000000000000  0.0000000000000000
  0.4351029615000004  0.0000000000000000  0.0000000000000000
  0.5648970384999995  0.0000000000000000  0.0000000000000000
  0.6838747334999997  0.0000000000000000  0.0000000000000000
  0.8193516654999999  0.0000000000000000  0.0000000000000000
  0.0000000000000000  0.1806483345000000  0.0000000000000000
  0.0000000000000000  0.3161252665000003  0.0000000000000000
  0.0000000000000000  0.4351029615000004  0.0000000000000000
  0.0000000000000000  0.5648970384999995  0.0000000000000000
  0.0000000000000000  0.6838747334999997  0.0000000000000000
  0.0000000000000000  0.8193516654999999  0.0000000000000000
  0.1806483345000000  0.1806483345000000  0.0000000000000000
  0.3161252665000003  0.3161252665000003  0.0000000000000000
  0.4351029615000004  0.4351029615000004  0.0000000000000000
  0.5648970384999995  0.5648970384999995  0.0000000000000000
  0.6838747334999997  0.6838747334999997  0.0000000000000000
  0.8193516654999999  0.8193516654999999  0.0000000000000000
