generated by phonopy
   1.0
     3.5072496346852757    0.0000000000000000    0.0000000000000000
     0.0000000000000000    3.5072496346852757    0.0000000000000000
     0.0000000000000000    0.0000000000000000   10.0000000000000000
C
   4
Direct
  0.5000000000000000  0.7947200089999999  0.0000000000000000
  0.5000000000000000  0.2052799910000001  0.0000000000000000
  0.2052799910000001  0.5000000000000000  0.0000000000000000
  0.7947200089999999  0.5000000000000000  0.0000000000000000
