generated by phonopy
   1.0
     2.4574999809500002   -2.7434999943000000    0.0000000000000000
     2.4574999809500002    2.7434999943000000    0.0000000000000000
     0.0000000000000000    0.0000000000000000   22.5000000000000000
C
   8
Direct
  0.0000000000000000  0.5000000000000000  0.9728000015000000
  0.0000000000000000  0.5000000000000000  0.0271999985000000
  0.5000000000000000  0.0000000000000000  0.0271999985000000
  0.5000000000000000  0.0000000000000000  0.9728000015000000
  0.6255999950000000  0.3744000050000000  0.9511000065000002
  0.3744000050000000  0.6255999950000000  0.0488999934999998
  0.3744000050000000  0.6255999950000000  0.9511000065000002
  0.6255999950000000  0.3744000050000000  0.0488999934999998
