generated by phonopy
   1.0
     6.1099999999900749    0.0000000000000000    0.0000000000000000
    -3.0549999999950375    5.2914152171143245    0.0000000000000000
     0.0000000000000000    0.0000000000000000   15.0000000000000000
C
  18
Direct
  0.2317005237417747  0.0000000000000000  0.4212013462034522
  0.0000000000000000  0.2317005237417747  0.4212013462034522
  0.7682994762582253  0.7682994762582253  0.4212013462034522
  0.7682994762582253  0.0000000000000000  0.4212013462034522
  0.0000000000000000  0.7682994762582253  0.4212013462034522
  0.2317005237417747  0.2317005237417747  0.4212013462034522
  0.2317005237417747  0.0000000000000000  0.5787986537965478
  0.0000000000000000  0.2317005237417747  0.5787986537965478
  0.7682994762582253  0.7682994762582253  0.5787986537965478
  0.7682994762582253  0.0000000000000000  0.5787986537965478
  0.0000000000000000  0.7682994762582253  0.5787986537965478
  0.2317005237417747  0.2317005237417747  0.5787986537965478
  0.3905483499550270  0.0000000000000000  0.5000000000000000
  0.0000000000000000  0.3905483499550270  0.5000000000000000
  0.6094516500449729  0.6094516500449729  0.5000000000000000
  0.6094516500449729  0.0000000000000000  0.5000000000000000
  0.0000000000000000  0.6094516500449729  0.5000000000000000
  0.3905483499550270  0.3905483499550270  0.5000000000000000
