generated by phonopy
   1.0
    14.6000003814695312    0.0000000000000000    0.0000000000000000
    -7.3000001907347656   12.6439712256151076    0.0000000000000000
     0.0000000000000000    0.0000000000000000   17.0000000000000000
C
  30
Direct
  0.0980651881331163  0.0000000000000000  0.0000000000000000
  0.1936628387733053  0.0000000000000000  0.0000000000000000
  0.2783193665285014  0.0000000000000000  0.0000000000000000
  0.3694286291975286  0.0000000000000000  0.0000000000000000
  0.4546340751352169  0.0000000000000000  0.0000000000000000
  0.5453659248647831  0.0000000000000000  0.0000000000000000
  0.6305713708024714  0.0000000000000000  0.0000000000000000
  0.7216806334714986  0.0000000000000000  0.0000000000000000
  0.8063371612266947  0.0000000000000000  0.0000000000000000
  0.9019348118668836  0.0000000000000000  0.0000000000000000
  0.0000000000000000  0.0980651881331163  0.0000000000000000
  0.0000000000000000  0.1936628387733053  0.0000000000000000
  0.0000000000000000  0.2783193665285014  0.0000000000000000
  0.0000000000000000  0.3694286291975286  0.0000000000000000
  0.0000000000000000  0.4546340751352169  0.0000000000000000
  0.0000000000000000  0.5453659248647831  0.0000000000000000
  0.0000000000000000  0.6305713708024714  0.0000000000000000
  0.0000000000000000  0.7216806334714986  0.0000000000000000
  0.0000000000000000  0.8063371612266947  0.0000000000000000
  0.0000000000000000  0.9019348118668836  0.0000000000000000
  0.0980651881331163  0.0980651881331163  0.0000000000000000
  0.1936628387733053  0.1936628387733053  0.0000000000000000
  0.2783193665285014  0.2783193665285014  0.0000000000000000
  0.3694286291975286  0.3694286291975286  0.0000000000000000
  0.4546340751352169  0.4546340751352169  0.0000000000000000
  0.5453659248647831  0.5453659248647831  0.0000000000000000
  0.6305713708024714  0.6305713708024714  0.0000000000000000
  0.7216806334714986  0.7216806334714986  0.0000000000000000
  0.8063371612266947  0.8063371612266947  0.0000000000000000
  0.9019348118668836  0.9019348118668836  0.0000000000000000
