generated by phonopy
   1.0
     7.0500001906999996    0.0000000000000000    0.0000000000000000
     0.0000000000000000   17.0000000000000000    0.0000000000000000
    -3.2450001238999984    0.0000000000000000    6.5904534384000009
C
  16
Direct
  0.1081900000000000  0.0000000000000000  0.9897300000000000
  0.8918100000000000  0.0000000000000000  0.0102700000000000
  0.3191200199999997  0.0000000000000000  0.1635600029999999
  0.6808799800000003  0.0000000000000000  0.8364399970000002
  0.4968899869999999  0.0000000000000000  0.1029400009999998
  0.5031100130000001  0.0000000000000000  0.8970599990000002
  0.6961200229999999  0.0000000000000000  0.2582100030000000
  0.3038799770000001  0.0000000000000000  0.7417899969999999
  0.6080899829999998  0.0000000000000000  0.5762900109999995
  0.3919100170000002  0.0000000000000000  0.4237099890000005
  0.7449899909999999  0.0000000000000000  0.4803299900000002
  0.2550100090000001  0.0000000000000000  0.5196700099999998
  0.8820599909999999  0.0000000000000000  0.2167699929999998
  0.1179400090000001  0.0000000000000000  0.7832300070000002
  0.9607399699999998  0.0000000000000000  0.5767599939999996
  0.0392600300000002  0.0000000000000000  0.4232400060000004
