generated by phonopy
   1.0
     2.4684164524009260    0.0000000000000000    0.0000000000000000
    -1.2342082262004630    2.1377113548986633    0.0000000000000000
     0.0000000000000000    0.0000000000000000   14.0000000000000000
C
   2
Direct
  0.3333333333333333  0.6666666666666667  0.0000000000000000
  0.6666666666666667  0.3333333333333333  0.0000000000000000
