generated by phonopy
   1.0
     9.2919999999999980    0.0000000000000000    0.0000000000000000
    -4.6459999999999990    8.0471080519650009    0.0000000000000000
     0.0000000000000000    0.0000000000000000   15.0000000000000000
C
  18
Direct
  0.7521668813847115  0.6672496382309610  0.0000000000000000
  0.5957605798443082  0.5390662928076055  0.0000000000000000
  0.4609337071923945  0.4042394201556919  0.0000000000000000
  0.3327503617690391  0.2478331186152884  0.0000000000000000
  0.9150827568462493  0.6672496382309610  0.0000000000000000
  0.9433057129632973  0.5390662928076055  0.0000000000000000
  0.9433057129632973  0.4042394201556919  0.0000000000000000
  0.9150827568462493  0.2478331186152884  0.0000000000000000
  0.3327503617690391  0.0849172431537507  0.0000000000000000
  0.4609337071923945  0.0566942870367026  0.0000000000000000
  0.5957605798443082  0.0566942870367026  0.0000000000000000
  0.7521668813847115  0.0849172431537507  0.0000000000000000
  0.8455934950717852  0.9970931528352832  0.0000000000000000
  0.0029068471647168  0.1544065049282148  0.0000000000000000
  0.1514996577634980  0.1544065049282148  0.0000000000000000
  0.1514996577634980  0.9970931528352832  0.0000000000000000
  0.0029068471647168  0.8485003422365019  0.0000000000000000
  0.8455934950717852  0.8485003422365019  0.0000000000000000
