generated by phonopy
   1.0
     5.9840002060000002    0.0000000000000000    0.0000000000000000
     0.0000000000000000    5.9840002060000002    0.0000000000000000
     0.0000000000000000    0.0000000000000000   30.0000000000000000
C
  24
Direct
  0.0060000270000000  0.8240000160000001  0.4440000060000006
  0.9939999730000000  0.1759999839999999  0.4440000060000006
  0.8240000160000001  0.9939999730000000  0.5559999939999994
  0.1759999839999999  0.0060000270000000  0.5559999939999994
  0.9939999730000000  0.8240000160000001  0.5559999939999994
  0.0060000270000000  0.1759999839999999  0.5559999939999994
  0.1759999839999999  0.9939999730000000  0.4440000060000006
  0.8240000160000001  0.0060000270000000  0.4440000060000006
  0.6039999869999999  0.9360000050000000  0.5450000169999998
  0.3960000130000001  0.0639999950000000  0.5450000169999998
  0.9360000050000000  0.3960000130000001  0.4549999830000002
  0.0639999950000000  0.6039999869999999  0.4549999830000002
  0.3960000130000001  0.9360000050000000  0.4549999830000002
  0.6039999869999999  0.0639999950000000  0.4549999830000002
  0.0639999950000000  0.3960000130000001  0.5450000169999998
  0.9360000050000000  0.6039999869999999  0.5450000169999998
  0.2550000100000001  0.4140000120000000  0.5170000199999998
  0.7449999899999999  0.5859999880000000  0.5170000199999998
  0.4140000120000000  0.7449999899999999  0.4829999800000002
  0.5859999880000000  0.2550000100000001  0.4829999800000002
  0.7449999899999999  0.4140000120000000  0.4829999800000002
  0.2550000100000001  0.5859999880000000  0.4829999800000002
  0.5859999880000000  0.7449999899999999  0.5170000199999998
  0.4140000120000000  0.2550000100000001  0.5170000199999998
