generated by phonopy
   1.0
     8.7670001983999999    0.0000000000000000    0.0000000000000000
     0.0000000000000000    8.7670001983999999    0.0000000000000000
     0.0000000000000000    0.0000000000000000   17.0000000000000000
C
  28
Direct
  0.5000000000000000  0.9255761532107858  0.0000000000000000
  0.5000000000000000  0.0744238467892142  0.0000000000000000
  0.6925717792418939  0.5834465217263105  0.0000000000000000
  0.5834465217263105  0.6925717792418939  0.0000000000000000
  0.6389191884183084  0.8455422860441194  0.0000000000000000
  0.6389191884183084  0.1544577139558806  0.0000000000000000
  0.5834465217263105  0.3074282207581061  0.0000000000000000
  0.6925717792418939  0.4165534782736895  0.0000000000000000
  0.8455422860441194  0.6389191884183084  0.0000000000000000
  0.9123022833808860  0.7909688954502618  0.0000000000000000
  0.7909688954502618  0.9123022833808860  0.0000000000000000
  0.7909688954502618  0.0876977166191140  0.0000000000000000
  0.9123022833808860  0.2090311045497382  0.0000000000000000
  0.8455422860441194  0.3610808115816916  0.0000000000000000
  0.9255761532107858  0.5000000000000000  0.0000000000000000
  0.0744238467892142  0.5000000000000000  0.0000000000000000
  0.1544577139558806  0.3610808115816916  0.0000000000000000
  0.0876977166191140  0.2090311045497382  0.0000000000000000
  0.2090311045497382  0.0876977166191140  0.0000000000000000
  0.2090311045497382  0.9123022833808860  0.0000000000000000
  0.0876977166191140  0.7909688954502618  0.0000000000000000
  0.1544577139558806  0.6389191884183084  0.0000000000000000
  0.3074282207581061  0.5834465217263105  0.0000000000000000
  0.4165534782736895  0.6925717792418939  0.0000000000000000
  0.3610808115816916  0.8455422860441194  0.0000000000000000
  0.3610808115816916  0.1544577139558806  0.0000000000000000
  0.4165534782736895  0.3074282207581061  0.0000000000000000
  0.3074282207581061  0.4165534782736895  0.0000000000000000
