generated by phonopy
   1.0
     4.2649998665000002   -4.4850001334999998    0.0000000000000000
     4.2649998665000002    4.4850001334999998    0.0000000000000000
     0.0000000000000000    0.0000000000000000   15.0000000000000000
C
  14
Direct
  0.2966899870000002  0.1298300029999998  0.0000000000000000
  0.7033100129999998  0.8701699970000001  0.0000000000000000
  0.8701699970000001  0.7033100129999998  0.0000000000000000
  0.1298300029999998  0.2966899870000002  0.0000000000000000
  0.2761899794999999  0.9006100254999998  0.0000000000000000
  0.7238100205000001  0.0993899745000001  0.0000000000000000
  0.0993899745000001  0.7238100205000001  0.0000000000000000
  0.9006100254999998  0.2761899794999999  0.0000000000000000
  0.5206999779999999  0.2041800019999999  0.0000000000000000
  0.4793000220000001  0.7958199980000000  0.0000000000000000
  0.7958199980000000  0.4793000220000001  0.0000000000000000
  0.2041800019999999  0.5206999779999999  0.0000000000000000
  0.5744100210000003  0.4255899789999997  0.0000000000000000
  0.4255899789999998  0.5744100210000003  0.0000000000000000
