generated by phonopy
   1.0
     6.9860000610148791    0.0000000000000000    0.0000000000000000
    -3.4930000305074396    6.0500535236785238    0.0000000000000000
     0.0000000000000000    0.0000000000000000   20.0000000000000000
C
  24
Direct
  0.2016550149999999  0.4033100299999997  0.4658499959999997
  0.7983449850000002  0.5966899700000003  0.5341500040000002
  0.5966899700000002  0.7983449850000002  0.4658499959999997
  0.4033100299999998  0.2016550149999999  0.5341500040000002
  0.2016550149999999  0.7983449850000002  0.4658499959999997
  0.7983449850000002  0.2016550149999999  0.5341500040000002
  0.7983449850000002  0.5966899700000003  0.4658499959999997
  0.2016550149999999  0.4033100299999997  0.5341500040000002
  0.4033100299999998  0.2016550149999999  0.4658499959999997
  0.5966899700000002  0.7983449850000002  0.5341500040000002
  0.7983449850000002  0.2016550149999999  0.4658499959999997
  0.2016550149999999  0.7983449850000002  0.5341500040000002
  0.0000000000000000  0.4018100044999997  0.4388200039999997
  0.0000000000000000  0.5981899955000003  0.5611799960000003
  0.5981899955000003  0.5981899955000003  0.4388200039999997
  0.4018100044999998  0.4018100044999997  0.5611799960000003
  0.4018100044999998  0.0000000000000000  0.4388200039999997
  0.5981899955000003  0.0000000000000000  0.5611799960000003
  0.0000000000000000  0.5981899955000003  0.4388200039999997
  0.0000000000000000  0.4018100044999997  0.5611799960000003
  0.4018100044999998  0.4018100044999997  0.4388200039999997
  0.5981899955000003  0.5981899955000003  0.5611799960000003
  0.5981899955000003  0.0000000000000000  0.4388200039999997
  0.4018100044999998  0.0000000000000000  0.5611799960000003
