generated by phonopy
   1.0
     9.4600000381281539    0.0000000000000000    0.0000000000000000
     0.0000000000000000   12.0000000000000000    0.0000000000000000
    -3.6599998475841056    0.0000000000000000   10.0458950138297354
C
  18
Direct
  0.6483999970000001  0.5000000000000000  0.6483999970000001
  0.1316000029999999  0.5000000000000000  0.9799999999999998
  0.9700000000000000  0.5000000000000000  0.1216000030000000
  0.1516000030000000  0.5000000000000000  0.1516000030000000
  0.8483999970000000  0.5000000000000000  0.0000000000000000
  0.9999999999999999  0.5000000000000000  0.8483999969999998
  0.7005999979999999  0.5000000000000000  0.7005999979999999
  0.0994000019999999  0.5000000000000000  0.7999999999999998
  0.9000000000000000  0.5000000000000000  0.1993999719999999
  0.2993999720000000  0.5000000000000000  0.2993999719999999
  0.7006000280000000  0.5000000000000000  0.0000000000000000
  0.0000000000000000  0.5000000000000000  0.7005999979999999
  0.5508000060000000  0.5000000000000000  0.5508000059999999
  0.4291999940000000  0.5000000000000000  0.0000000000000000
  0.0000000000000000  0.5000000000000000  0.4291999939999998
  0.4291999940000000  0.5000000000000000  0.4291999939999998
  0.5708000060000000  0.5000000000000000  0.0000000000000000
  0.0000000000000000  0.5000000000000000  0.5708000059999999
