graphene
1.0
        1         0.0000000000         0.0000000000
        0.0000000000         1         0.0000000000
        0.0000000000         0.0000000000        0.3
    C
    4
Direct
     0.3         0.7         0.50000000 C s I
     0.7         0.3         0.50000000 C s I
     0.3         0.3         0.50000000 Si s I
     0.7         0.7         0.50000000 Si s I
