generated by phonopy
   3.0
     2    0.0000000000000000    0.0000000000000000
     0   4    0.0000000000000000
     0.0000000000000000    0.0000000000000000   4.0000000000000000
C Si 
   1 1
Direct
  0.3  0.5  0.5500000000000000  C s I
  0.6  0.5  0.4500000000000000 Si s I




