K-Path Generated by VASPKIT.
   61
Line-Mode
Reciprocal
   0.0000000000   0.0000000000   0.0000000000     GAMMA
   0.0000000000   0.0000000000   0.5000000000     Z

   0.000000000   0.0000000000    0.5000000000     Z
   0.0000000000   0.0000000000   1.0000000000     G