POSCAR Gen by vasplib
1
  1.000000  0.000000  0.000000
  0.000000  1.732051  0.000000
  0.000000  0.000000  0.866025
Cd As 
  4 4 
Direct
  0.250000  0.250000  0.500000  
  0.750000  0.750000  0.500000  
  0.250000  0.250000  0.500000  
  0.750000  0.750000  0.500000  
  0.250000  0.250000  0.500000  
  0.750000  0.750000  0.500000  
  0.250000  0.250000  0.500000  
  0.750000  0.750000  0.500000  
  