Cd24 As16
3
1 0.000000 0.000000
0   1 0.000000
0.000000 0.0 1
Cd 
4
direct
0.7500000 0.75 0.5 Cd s I 1
0.2500000 0.25 0.5 Cd p z 1
0.2500000 0.75 0.5 Cd s I -1
0.7500000 0.25 0.5 Cd p z -1