C                                                                               
1
    3.4485089302   -1.9909976310   -1.4078479167
    0.0000000000    3.9819951543   -1.4078479167
    0.0000000000    0.0000000000    4.2235436739
8                                                                               
cartesian
    1.1215689049   -0.6475381325   -0.4578786015
    2.3269400253    1.3434594258    0.9499692638
    0.0000000000    1.2950762300   -0.4578786015
    0.0000000000    0.0000000000    1.3736357797
    0.0000000000    2.6869189243   -0.9499693152
    1.1215689049    0.6475380975    0.4578785767
    2.3269400253   -1.3434594985   -0.9499693152
    0.0000000000    0.0000000000    2.8499078942
