C                                                                               
1
    3.8284193680   -3.0171627371    0.0000000000
    0.0000000000    4.8744297964    0.0000000000
    0.0000000000    0.0000000000    2.5146882631
8                                                                               
cartesian
    2.4816273754    2.8284820041    0.0000000000
    1.3467919926   -0.9712149449    0.0000000000
    0.0708334151    1.6589423642    0.0000000000
    3.7575859529    0.1983246950    2.5146882631
    1.5493000635   -0.1175776865    1.2573441315
    2.2791193045    1.9748447458    1.2573441315
    2.9617839041    0.5676554232    1.2573441315
    0.8666354639    1.2896116361    1.2573441315
