C                                                                               
1
    3.5464944442   -0.1393989323    0.0000000000
    0.0000000000    3.5492330023    0.0000000000
    0.0000000000    0.0000000000    5.4313420213
8                                                                               
cartesian
    0.8866236110    0.8524585175    0.7096645798
    3.1626999084    1.2662121454    4.1460909707
    2.6598708331    2.5573755525    0.7096645798
    0.8866236110    0.8524585175    4.7216774414
    2.6598708331    2.5573755525    4.7216774414
    2.1570417578    0.2993059572    4.1460909707
    0.3837945358    2.1436219246    1.2852510505
    1.3894526863    3.1105281128    1.2852510505
