C                                                                               
1
    1.6315206439   -0.0056653189    0.0000000000
    0.0000000000    1.6315304800    0.0000000000
    0.0000000000    0.0000000000    9.8798732344
2                                                                               
cartesian
    0.5403841101    0.5385109293    7.4099049258
    1.0911365338    1.0873542318    2.4699683086
