C                                                                               
1
    2.4339699967   -4.0553861050   -0.5620299008
    0.0000000000    4.7297321706    0.5620299008
    0.0000000000    0.0000000000    4.1514581246
8                                                                               
cartesian
    0.1390794796    4.2277417272    4.1479114353
    2.2948905171   -3.5533956617    0.0035466893
    1.3583499757   -0.1730666367    2.6482778467
    1.0756200209    0.8474127022    1.5031802779
    0.5214342603    2.8476787122    0.5672772444
    1.9125357364   -2.1733326466    3.5841808802
    1.7737142576   -1.6722734258    2.1739926101
    0.6602557391    2.3466194913    1.9774655145
