C                                                                               
1
    8.7423195689   -4.9915429891    0.0000000000
    0.0000000000   10.0669584710    0.0000000000
    0.0000000000    0.0000000000   17.9999556550
140                                                                             
cartesian
    1.5655571038    2.8445297606    7.7349409441
    4.5086677289    3.7330888201   14.7136317512
    0.2339881833    4.7082056981   12.2927097155
    8.3558216207   -0.3666732121    4.4999889138
    5.4958242277    5.1262741480    7.7349409441
    1.0709166625    6.8361724464    2.0550909370
    0.3931071417    2.6037615908    5.7109539304
    3.8142740279    3.4969342839    0.2371314158
    0.4626085823    3.3481841524    2.0560629346
    7.6714029063   -1.7607569645   11.0550687645
    3.2847867009    5.8475861837    0.5490166474
    4.5086677289    3.7330888201   12.2863017313
    7.1767624651    2.2308857212   16.7349187716
    4.3597335728    4.8930041033    0.5027027615
    8.2797109866    1.7272313295   15.9438927204
    0.1451137625    4.7075176333    2.0549469374
    2.7025744446    2.5188263145   13.4999667413
    6.0397451243    2.5565891674    4.4999889138
    2.0354655229    5.1222839342    0.5490166474
    8.2797109866    1.7272313295   11.0560407621
    4.3597335728    4.8930041033    8.4972750660
    5.4774303873    2.0644110978    5.7136539237
    0.0571922546    6.8686077681   13.4999667413
    7.2903077117    3.4410861860   12.2864817308
    3.2648891815    3.0110043841   14.7136317512
    4.4925468916    2.3286204482    1.0991672921
    3.3965048027    7.0415348463    7.7156089917
    6.1171059102    4.0523415068    2.0506089481
    5.2148985307    3.9773738386   13.4999667413
    8.5083313856    0.3672097838    5.7072459395
    5.3458147662   -1.9661193644   16.7155868192
    8.5083313856    0.3672097838    3.2927318880
    6.7068540460   -0.0468684524   17.4509390076
    4.3825859961    0.1824113786    9.5026805890
    6.1171059102    4.0523415068    6.9493688794
    3.3965048027    7.0415348463    1.2843688358
    6.6564108620    3.8280847032   13.4999667413
    7.6714029063   -1.7607569645   15.9448647180
    5.4774303873    2.0644110978    3.2863239038
    3.1527339638    2.3027139021   11.0490207794
    2.0354655229    5.1222839342    8.4509611801
    4.2497726772    2.7467950337   10.0991451196
    3.1369977886   -1.2584072048   15.9438927204
    0.7602321097    7.2952555330    4.4999889138
    0.1451137625    4.7075176333    6.9450308901
    7.2903077117    3.4410861860   14.7134517517
    4.3825859961    0.1824113786   17.4972528935
    5.1793697439    3.4792916437   15.9509127031
    8.3492124271    2.4716538911   12.2890017246
    3.5629498249    1.5961238381    2.0490429519
    3.2847867009    5.8475861837    8.4509611801
    2.0300452848    8.0324545564    4.4999889138
    4.9280455410    1.5784811979   17.7628242392
    3.5629498249    1.5961238381    6.9509348756
    0.4626085823    3.3481841524    6.9439148929
    5.9663008976   -3.0214269151   14.7092577620
    3.8142740279    3.4969342839    8.7628464117
    4.9280455410    1.5784811979    9.2371092433
    0.3931071417    2.6037615908    3.2890238971
    6.7122742841   -2.9570390745   13.4999667413
    5.4575328680   -0.7721707018    9.5489944749
    1.0709166625    6.8361724464    6.9448868905
    5.4958242277    5.1262741480    1.2650368834
    2.4560672597   -0.9496532327   12.2890017246
    4.5376135490    7.2067058544   14.7072237670
    5.9663008976   -3.0214269151   12.2906757205
    1.5655571038    2.8445297606    1.2650368834
    3.2464953412   -0.0508586661   16.7349187716
    2.2746728709    7.5350216303    2.0550909370
    5.5895856051    2.7727015797    6.9509348756
    6.4108740746    1.3599483737   17.4972528935
    4.2336518399    1.3423266618    3.2863239038
    7.7990932259   -0.5418511965   10.2843466633
    5.9931747880   -3.3560243722    4.4999889138
    8.6851273142   -1.7931922862    4.4999889138
    0.3344374351    6.6793651350    5.7092799345
    6.2862523092    6.0250687146    3.2890238971
    8.5972058063    0.3678978486   11.0549247649
    2.7760186713    8.0968423970    3.2906978930
    4.5822780597    7.2835447611    2.0549469374
    4.2047060198   -2.1312903726    5.7072459395
    2.1901258984    1.7725054757    6.9493688794
    7.9820874592   -2.2198400512   13.4999667413
    2.6252136587    1.0230739750   15.9493467069
    4.1600415092   -2.2081292792   15.9450087176
    3.8246773882    7.4381480947   13.4999667413
    6.4108740746    1.3599483737    9.5026805890
    7.7990932259   -0.5418511965   16.7155868192
    3.2648891815    3.0110043841   12.2863017313
    0.9432263429    5.6172666784    7.7156089917
    1.4520118572    1.6343292958    3.2865039033
    3.2464953412   -0.0508586661   10.2650147109
    6.6248510884    3.8824458935    4.4999889138
    5.6053217803    6.3338226867    2.0560629346
    4.9176421807   -2.3627326128    4.4999889138
    2.4560672597   -0.9496532327   14.7109317579
    4.2497726772    2.7467950337   16.9007883629
    2.3314454942    3.7154671082    0.5027027615
    0.9432263429    5.6172666784    1.2843688358
    8.4078821338   -1.6039496531   12.2906757205
    5.4575328680   -0.7721707018   17.4509390076
    4.4925468916    2.3286204482    7.9008105354
    6.5521936705    3.3029100062   11.0505867756
    6.7068540460   -0.0468684524    9.5489944749
    3.1527339638    2.3027139021   15.9509127031
    6.4676466979   -2.4596061484   11.0550687645
    5.3458147662   -1.9661193644   10.2843466633
    6.5521936705    3.3029100062   15.9493467069
    2.3314454942    3.7154671082    8.4972750660
    4.5376135490    7.2067058544   12.2927097155
    2.1392368562    0.4505955546   14.7134517517
    0.3864979481    5.4420886939   13.4999667413
    5.6053217803    6.3338226867    6.9439148929
    2.0859087068    1.2473307786    4.4999889138
    1.4520118572    1.6343292958    5.7134739242
    2.1392368562    0.4505955546   12.2864817308
    6.6030827127    4.6248199273    3.2865039033
    4.1600415092   -2.2081292792   11.0549247649
    2.1901258984    1.7725054757    2.0506089481
    6.6030827127    4.6248199273    5.7134739242
    4.2047060198   -2.1312903726    3.2927318880
    4.5822780597    7.2835447611    6.9450308901
    2.7760186713    8.0968423970    5.7092799345
    8.5972058063    0.3678978486   15.9450087176
    3.5274210382    1.0980416433    4.4999889138
    2.6252136587    1.0230739750   11.0505867756
    7.1767624651    2.2308857212   10.2650147109
    6.2862523092    6.0250687146    5.7109539304
    0.3344374351    6.6793651350    3.2906978930
    2.1174684805    1.1929695884   13.4999667413
    2.7491447809    8.4314398541   13.4999667413
    8.3492124271    2.4716538911   14.7109317579
    8.4078821338   -1.6039496531   14.7092577620
    3.1369977886   -1.2584072048   11.0560407621
    5.1793697439    3.4792916437   11.0490207794
    0.2339881833    4.7082056981   14.7072237670
    6.4676466979   -2.4596061484   15.9448647180
    4.2336518399    1.3423266618    5.7136539237
    5.5895856051    2.7727015797    2.0490429519
    2.2746728709    7.5350216303    6.9448868905
