C                                                                               
1
    2.5260168843    0.0000000000    0.0000000000
    0.0000000000    4.1595931626    0.0000000000
    0.0000000000    0.0000000000    9.0720845439
16                                                                              
cartesian
    1.8945126632    1.7616708962    6.3071581212
    1.8945126632    0.3181256851    1.7711158492
    0.6315042211    2.3979222664    2.7649264227
    0.6315042211    3.8414674775    7.3009686946
    0.6315042211    0.8253007198    6.2550208513
    0.6315042211    1.2544958615    1.7189785794
    1.8945126632    3.3342924428    2.8170636926
    1.8945126632    2.9050973011    7.3531059645
    0.6315042211    1.6979667269    0.1864857699
    0.6315042211    0.3818298544    4.7225280418
    1.8945126632    2.4616264357    8.8855987740
    1.8945126632    3.7777633083    4.3495565021
    0.6315042211    0.2844080229    8.7379324539
    0.6315042211    1.7953885584    4.2018901819
    1.8945126632    3.8751851397    0.3341520900
    1.8945126632    2.3642046042    4.8701943619
