C                                                                               
1
    2.7209024451   -6.2960727269   -0.2936963215
    0.0000000000    6.8588513542   -0.2936963215
    0.0000000000    0.0000000000    6.8651365192
12                                                                              
cartesian
    0.5842212894    4.0342786752   -0.2936963215
    2.1366811557   -3.4715000479   -0.2936963215
    0.5842212894    0.1208375757    2.8219867070
    2.1366811557    0.4419410515    3.4557571692
    0.6474985967    4.9242433652    0.8520868484
    2.0734038485   -4.3614647379    5.4256570277
    0.6474985967   -1.0619700489    1.9818543635
    2.0734038485    1.6247486762    4.2958895127
    2.5478149570   -0.6689175768    4.2958895127
    0.1730874881    1.2316962040    1.9818543635
    2.5478149570   -4.2633397820    0.8520868484
    0.1730874881    4.8261184093    5.4256570277
