C                                                                               
1
    2.1847036165    1.2486261164   14.3341535583
    0.0000000000    2.5163459759   14.3341535583
    0.0000000000    0.0000000000   14.5533485942
14                                                                              
cartesian
    0.8967421853    1.5453855049   17.7409336896
    0.6634835648    1.1434031996   13.1262007311
    1.2879614313    2.2195865874   25.4807220211
    0.3770252266    0.6497400588    7.4589772343
    1.8076783899    3.1152320335   35.7626784764
    1.2089865802    2.0834866113   23.9183023888
    0.4547198413    0.7836337614    8.9960689763
    1.5989561758    2.7555341297   31.6333679332
    0.5857474407    1.0094379626   11.5882877776
    0.9757170363    1.6814854811   19.3033533219
    0.0388964632    0.0670315631    0.7695183583
    1.7299837752    2.9813383310   34.2255867344
    1.5212200517    2.6215688927   30.0954549797
    2.1458071533    3.6979405292   42.4521373525
