C                                                                               
1
    2.1369134655   -1.2342831460    0.0000000000
    0.0000000000    2.4677629634    0.0000000000
    0.0000000000    0.0000000000    8.0283247164
4                                                                               
cartesian
    0.1782634582    2.1589345749    6.1019924273
    1.2467201910    0.3079115202    1.9263322891
    1.9586500073   -0.9254547575    1.9263322891
    0.8901932746    0.9255682972    6.1019924273
