C                                                                               
1
    2.1851993589   -1.2616254381    0.0000000000
    0.0000000000    2.5232508761    0.0000000000
    0.0000000000    0.0000000000   16.5599052265
16                                                                              
cartesian
    0.0000000000    0.0000000000    7.5047337699
    0.7283997790    1.2616254507   13.2035601951
    1.4567995799   -0.0000000126    4.9236075819
    0.7283997790    1.2616254507   11.6362976447
    1.4567995799   -0.0000000126    9.5704825875
    1.4567995799   -0.0000000126   13.7229450627
    1.4567995799   -0.0000000126   15.2693752523
    0.7283997790    1.2616254507    2.8369601639
    1.4567995799   -0.0000000126    3.3563450314
    0.0000000000    0.0000000000   15.7846863832
    0.0000000000    0.0000000000    9.0551714566
    1.4567995799   -0.0000000126   11.1169127772
    0.7283997790    1.2616254507    5.4429924494
    0.0000000000    0.0000000000    0.7752188434
    0.7283997790    1.2616254507    1.2905299742
    0.7283997790    1.2616254507    6.9894226391
