C                                                                               
1
    1.6110652512   -0.0256784567    0.0000000000
    0.0000000000    1.6112698802    0.0000000000
    0.0000000000    0.0000000000    6.3990326550
2                                                                               
cartesian
    1.0764461361    0.5175297533    4.7992744913
    0.5346191151    1.0680616702    1.5997581638
