C                                                                               
1
    7.5860939308    2.9130066472    5.4752832304
    0.0000000000    8.1261570779    5.4752832304
    0.0000000000    0.0000000000    9.7986302771
60                                                                              
cartesian
    5.4384024642    9.1966966568    8.9833072304
    4.3394884834    3.6917370393    6.9389837890
    6.6359660104    2.7709184345   11.9641642288
    4.8939257445    5.7133895901   15.1006021904
    6.6359660104    8.3737330904    8.9833072304
    2.6921681864    5.3257741349    5.6485945475
    1.8907959818    2.7514563627    8.3345040122
    3.5793391133    8.8258426382   13.9253132658
    1.4893323049    7.7955754421   12.1276122804
    1.8907959818    5.3744742273    6.9389837890
    4.7887900687    3.4342213253   13.2416653174
    3.4520065267    7.7549291721   16.0850353315
    2.3210261269    6.8800973095   12.9318213051
    5.5908222634    4.6330991451   12.9318213051
    6.9561826213    7.9134553420   13.1761247794
    2.6921681864    1.7085290779    7.5730719585
    0.9501279205    8.2682452906    8.7850325091
    1.5840067571    5.0366454965    4.6641614064
    4.1340874042    3.2842345529    4.6641614064
    2.1476914667    8.7281012589    8.1025359742
    4.0067548175    4.4223925100    5.6485945475
    6.0020871737    9.9854809849   13.9659856867
    6.0020871737    6.0025182286   16.0850353315
    5.5908222634    8.1356759996   11.0683506443
    3.5793391133    6.6167712151   15.1006021904
    2.1476914667    1.8424670683   11.7658895075
    6.7435975111    7.7192037458   10.2472373326
    7.3781439240    5.1337435131    8.1025359742
    6.7435975111    4.1848536171   12.1276122804
    1.9952716674    6.4060645800    7.8173754328
    5.6952979491    8.2877073624   12.4146927257
    5.4384024642    2.3110624661   12.6466607636
    4.8939257445    9.3306346471   13.1761247794
    0.6299113095    4.5338820169    6.8238834721
    4.1340874042    2.0328957507    5.3299092948
    5.6952979491    5.6646894977   13.8102129489
    3.2466054474    7.3474266858   13.8102129489
    7.1702621920    6.4510892092   15.4192874431
    0.2079500068    7.1882397467   11.9641642288
    1.9952716674    2.9034877255    9.6808460936
    1.5840067571    1.0536827402    6.7832110512
    3.4520065267    9.0062679744   15.4192874431
    0.6299113095    3.1257083831    7.5730719585
    5.2650678040    4.1590664156    7.8173754328
    6.9561826213    6.5052817081   13.9253132658
    2.7973038622    7.6049423998    7.5075314204
    4.0067548175    2.2133210868    6.8238834721
    4.7887900687    9.0625439882   10.2472373326
    0.9501279205    2.6654306347   11.7658895075
    0.4158317388    1.8564505619    6.7832110512
    2.7973038622    1.9766197368   10.5019594052
    1.4893323049    5.7016029078   13.2416653174
    6.0967616260    5.3375608172    7.5075314204
    7.3781439240    3.8509239784    8.7850325091
    0.8424964198    6.8543101079    8.6215844575
    7.1702621920    9.1827131632   13.9659856867
    0.2079500068    5.9054202119   12.6466607636
    0.4158317388    4.5880745159    5.3299092948
    6.0967616260    3.2435882829    8.6215844575
    0.8424964198    3.3199599793   10.5019594052
