C                                                                               
1
    6.1387452276   -0.9810152965   -0.8552877672
    0.0000000000    6.2166376749   -0.8552877672
    0.0000000000    0.0000000000    6.2751972994
18                                                                              
cartesian
    0.0000000000    3.5484567849    2.2051164234
    0.0000000000    5.2741954034    0.2256937689
    0.0000000000    4.3553763551    1.2795794617
    2.6347494517   -0.4210517653    3.2147931088
    0.9306337765   -0.1487219189    5.1942157633
    1.8379403211   -0.2937159798    4.1403300704
    3.5039957759    2.1082173589   -0.8552877672
    5.2081114511    0.1101488940   -0.8552877672
    4.3008049065    1.1739620032   -0.8552877672
    0.0000000000    2.6681808901    3.2147931088
    0.0000000000    0.9424422715    5.1942157633
    0.0000000000    1.8612613199    4.1403300704
    3.5039957759   -0.5599635312    2.2051164234
    5.2081114511   -0.8322933775    0.2256937689
    4.3008049065   -0.6872993167    1.2795794617
    2.6347494517    3.1274050196   -0.8552877672
    0.9306337765    5.1254734845   -0.8552877672
    1.8379403211    4.0616603753   -0.8552877672
