C                                                                               
1
    2.1368613717    1.2268600847   18.9819166592
    0.0000000000    2.4640134312   18.9819166592
    0.0000000000    0.0000000000   19.1411734814
8                                                                               
cartesian
    0.0675440511    0.1166648210    1.8050321599
    1.9347420651    3.3417648627   51.7036155217
    1.6267305933    2.8097549724   43.4723856315
    0.2021193066    0.3491086533    5.4013912782
    2.0693173206    3.5742086950   55.2999746399
    0.7797684937    1.3468477273   20.8383593463
    0.5101307784    0.8811185436   13.6326211683
    1.3570928780    2.3440257886   36.2666474535
