C                                                                               
1
    2.1764022021   -1.2565463972    0.0000000000
    0.0000000000    2.5130927944    0.0000000000
    0.0000000000    0.0000000000    4.1814005468
4                                                                               
cartesian
    1.4509348086   -0.0000000126    2.3531751485
    0.7254673934    1.2565464098    0.2624748751
    0.7254673934    1.2565464098    1.8282253983
    1.4509348086   -0.0000000126    3.9189256717
