C                                                                               
1
    7.8483477513   -2.1720719430   -5.7518430006
    0.0000000000    8.1158583662   -5.7905958101
    0.0000000000    0.0000000000    9.9698624291
60                                                                              
cartesian
    1.8504912812    5.1777976154   -5.0766181114
    2.6130445970    5.7553018481   -6.1980930087
    2.8275085477    6.9060750457   -3.4412769429
    7.1973351537   -1.2655638870    0.8787138514
    0.6445691041    4.6106015485    4.3546191986
    7.2037786472    1.3331848748   -5.9271955802
    4.5496008596    4.8450868038   -1.0179017166
    2.5390189810    2.1555154258   -1.0788898973
    5.2353031543    4.2410329441   -3.2574833463
    5.9978564702    4.8185371768   -4.3789582436
    0.5431292094    0.1786867718    6.5158865537
    7.3052185419    3.2358978978    0.5789853824
    6.0425057205    2.9220675081   -1.3725353766
    5.0208392037   -0.9622886225    1.8687005612
    3.6538532341   -0.5839679918    1.1340270273
    6.0797461306    3.9857974911    0.7099422339
    0.6445691041    1.8931443441    2.9552628187
    7.1973351537    0.0197446024    1.5405843059
    7.3052185419    5.7650996514   -8.0884629353
    5.2353031543    0.1884845751    4.6255166270
    4.1944945173    6.5277544150   -2.7066034089
    5.3093287703    3.7882709974   -0.4936864844
    1.8778584698   -0.2442550767    3.0476881910
    7.1549462275    2.7917605519   -3.6671965476
    2.5390189810   -0.3736863278    7.5885584205
    0.6934015238    3.1520258713    2.0946201659
    7.3051871485   -0.9293223605   -2.4972436121
    0.5431292094    2.7078885254   -2.1515617641
    5.3093287703    6.3174727510   -9.1611348021
    5.9704892816    6.1880414999   -4.6202645726
    3.3708810559    6.9074968896   -6.0173991479
    1.8778584698    5.7767866231   -3.8216348432
    3.2987468917    1.0986996194   -0.5546746650
    0.6510125976    7.2093503102   -2.4512902331
    5.9704892816    0.1669998001    2.2490584616
    7.2037786472    4.0506420791   -4.5278392004
    1.8585279893    5.5299686010    2.5692693907
    0.5431606028    6.8731087837    0.9246672304
    0.6934015238    4.5800273825    2.8299704861
    2.6130445970    1.7027534791    1.6849069647
    7.3051871485    2.5726137135   -0.6939193208
    3.2987468917   -0.1866088701   -1.2165451195
    3.3708810559    0.8864551897    0.8519238863
    4.4774666954    5.0573312335   -2.4245002679
    1.8585279893    2.8125113967    1.1699130108
    5.9898197621    0.4138178222   -4.1418457723
    1.8058420308    6.5236549891    1.6032832862
    4.4774666954   -0.9637104664    4.4448227663
    1.8058420308    3.0217189152   -0.2000410050
    4.5496008596    6.1303952933   -0.3560312622
    6.0425057205   -0.5798685659   -3.1758596678
    6.0797461306    5.2229464770   -8.6228495089
    5.9898197621    3.1312750265   -2.7424893924
    1.7686016207    1.9579889321   -2.2825186155
    0.5431606028    3.3711727097   -0.8786570608
    5.9978564702    0.7659888078    3.5040417297
    7.1549462275    1.3637590407   -4.4025468677
    0.6510125976    5.9240418208   -3.1131606875
    1.8504912812    1.1252492464    2.8063818620
    1.7686016207    0.7208399462    7.0502731273
