C                                                                               
1
    5.2173597761    0.0000000000    0.0000000000
    0.0000000000    5.2173597761    0.0000000000
    0.0000000000    0.0000000000    5.2173597761
20                                                                              
cartesian
    2.6086798881    0.7904926144    4.4268671617
    0.7904926144    0.7904926144    2.6086798881
    0.7904926144    2.6086798881    4.4268671617
    2.6086798881    4.4268671617    0.7904926144
    0.7904926144    4.4268671617    2.6086798881
    0.7904926144    2.6086798881    0.7904926144
    2.6086798881    0.7904926144    0.7904926144
    4.4268671617    0.7904926144    2.6086798881
    4.4268671617    2.6086798881    0.7904926144
    2.6086798881    4.4268671617    4.4268671617
    4.4268671617    4.4268671617    2.6086798881
    4.4268671617    2.6086798881    4.4268671617
    1.3691552045    1.3691552045    3.8482045716
    1.3691552045    3.8482045716    1.3691552045
    3.8482045716    1.3691552045    1.3691552045
    3.8482045716    3.8482045716    3.8482045716
    3.8482045716    3.8482045716    1.3691552045
    3.8482045716    1.3691552045    3.8482045716
    1.3691552045    3.8482045716    3.8482045716
    1.3691552045    1.3691552045    1.3691552045
