C                                                                               
1
    2.1368275760   -1.2363211864    0.0000000000
    0.0000000000    2.4687086027    0.0000000000
    0.0000000000    0.0000000000    8.1498999570
4                                                                               
cartesian
    0.1779101271    2.1602315275    1.9080871775
    1.9589174488   -0.9278441112    6.2418127795
    0.8905036608    0.9246707834    1.9080871775
    1.2463239151    0.3077166330    6.2418127795
