C                                                                               
1
    1.5683145468   -0.0991627222   -2.9304685057
    0.0000000000    1.5714463921   -2.9304685057
    0.0000000000    0.0000000000    3.3252202072
1                                                                               
cartesian
    0.0000000000    0.0000000000    0.0000000000
