C                                                                               
1
    2.1373773069   -1.2340153635    0.0000000000
    0.0000000000    2.4680307270    0.0000000000
    0.0000000000    0.0000000000   14.9975561724
4                                                                               
cartesian
    0.0000000000    0.0000000000   11.2481671293
    0.0000000000    0.0000000000    3.7493890431
    1.4249182117   -0.0000000123   11.2481671293
    0.7124590952    1.2340153758    3.7493890431
