C                                                                               
1
    9.1180922506    0.0000000000    0.0000000000
    0.0000000000    9.6345023263    0.0000000000
    0.0000000000    0.0000000000   13.3224315620
120                                                                             
cartesian
    4.5590461253    2.5787516237    3.6209836088
    4.5590461253    7.0557507027    9.7014479532
    0.0000000000    2.2384995395   10.2821993898
    0.0000000000    7.3960027868    3.0402321722
    3.7599091662    7.3132713153    4.0328599030
    3.7599091662    2.3212310110    9.2895716590
    0.7991369591    7.1384821741   10.6940756840
    0.7991369591    2.4960201522    2.6283558780
    5.3581830844    2.3212310110    9.2895716590
    5.3581830844    7.3132713153    4.0328599030
    8.3189552915    2.4960201522    2.6283558780
    8.3189552915    7.1384821741   10.6940756840
    0.7058497573    3.7795670901    5.7279128379
    0.7058497573    5.8549352362    7.5945187241
    3.8531963680    1.0376840731   12.3891286189
    3.8531963680    8.5968182533    0.9333029431
    8.4122424933    5.8549352362    7.5945187241
    8.4122424933    3.7795670901    5.7279128379
    5.2648958826    8.5968182533    0.9333029431
    5.2648958826    1.0376840731   12.3891286189
    3.7746713575    4.7150579970    3.3573460106
    3.7746713575    4.9194443293    9.9650855513
    0.7843747678    0.1021931662   10.0185617916
    0.7843747678    9.5323091601    3.3038697704
    5.3434208931    4.9194443293    9.9650855513
    5.3434208931    4.7150579970    3.3573460106
    8.3337174828    9.5323091601    3.3038697704
    8.3337174828    0.1021931662   10.0185617916
    2.0487259116    5.8051152247    4.8845496303
    2.0487259116    3.8293871016    8.4378819317
    2.5103202137    8.6466382648   11.5457654113
    2.5103202137    0.9878640615    1.7766661507
    7.0693663390    3.8293871016    8.4378819317
    7.0693663390    5.8051152247    4.8845496303
    6.6077720369    0.9878640615    1.7766661507
    6.6077720369    8.6466382648   11.5457654113
    2.5637613524    7.3281180834    2.9591651761
    2.5637613524    2.3063842429   10.3632663859
    1.9952847729    7.1236354060    9.6203809571
    1.9952847729    2.5108669203    3.7020506049
    6.5543308982    2.3063842429   10.3632663859
    6.5543308982    7.3281180834    2.9591651761
    7.1228074777    2.5108669203    3.7020506049
    7.1228074777    7.1236354060    9.6203809571
    3.3340304314    3.3550034761    3.4100495499
    3.3340304314    6.2794988502    9.9123820121
    1.2250156939    1.4622476871   10.0712653309
    1.2250156939    8.1722546392    3.2511662311
    5.7840618192    6.2794988502    9.9123820121
    5.7840618192    3.3550034761    3.4100495499
    7.8930765567    8.1722546392    3.2511662311
    7.8930765567    1.4622476871   10.0712653309
    3.0049311278    5.9826887371    3.7769226703
    3.0049311278    3.6518135893    9.5455088917
    1.5541149975    8.4690647524   10.4381384512
    1.5541149975    1.1654375739    2.8842931107
    6.1131611228    3.6518135893    9.5455088917
    6.1131611228    5.9826887371    3.7769226703
    7.5639772531    1.1654375739    2.8842931107
    7.5639772531    8.4690647524   10.4381384512
    1.3655346135    4.7341054081    5.1334259743
    1.3655346135    4.9003969182    8.1890055877
    3.1935115118    0.0831457551   11.7946417553
    3.1935115118    9.5513565712    1.5277898067
    7.7525576371    4.9003969182    8.1890055877
    7.7525576371    4.7341054081    5.1334259743
    5.9245807388    9.5513565712    1.5277898067
    5.9245807388    0.0831457551   11.7946417553
    4.5590461253    8.0327374111    8.7055162593
    4.5590461253    1.6017649153    4.6169153027
    0.0000000000    6.4190160784    2.0443004783
    0.0000000000    3.2154862479   11.2781310837
    3.8366014401    8.3002971752    6.5029719389
    3.8366014401    1.3342051512    6.8194596231
    0.7224446852    6.1514563143   13.1641877199
    0.7224446852    3.4830460120    0.1582438421
    5.2814908105    1.3342051512    6.8194596231
    5.2814908105    8.3002971752    6.5029719389
    8.3956475654    3.4830460120    0.1582438421
    8.3956475654    6.1514563143   13.1641877199
    2.0991671979    6.9332480056    5.7939388087
    2.0991671979    2.7012543207    7.5284927532
    2.4598789274    7.5185054839   12.4551545897
    2.4598789274    2.1159968424    0.8672769723
    7.0189250527    2.7012543207    7.5284927532
    7.0189250527    6.9332480056    5.7939388087
    6.6582133232    2.1159968424    0.8672769723
    6.6582133232    7.5185054839   12.4551545897
    2.1729143281    7.5523322216    8.1597761728
    2.1729143281    2.0821701048    5.1626553892
    2.3861317972    6.8994212679    1.4985603918
    2.3861317972    2.7350810584   11.8238711702
    6.9451779226    2.0821701048    5.1626553892
    6.9451779226    7.5523322216    8.1597761728
    6.7319604534    2.7350810584   11.8238711702
    6.7319604534    6.8994212679    1.4985603918
    3.3866053514    8.1833921239    7.8524010318
    3.3866053514    1.4511102024    5.4700305302
    1.1724407740    6.2683613655    1.1911852508
    1.1724407740    3.3661409608   12.1312463112
    5.7314868993    1.4511102024    5.4700305302
    5.7314868993    8.1833921239    7.8524010318
    7.9456514767    3.3661409608   12.1312463112
    7.9456514767    6.2683613655    1.1911852508
    3.1805182303    7.7342701635    5.4136899671
    3.1805182303    1.9002321628    7.9087415949
    1.3785278950    6.7174833260   12.0749057481
    1.3785278950    2.9170190003    1.2475258139
    5.9375740203    1.9002321628    7.9087415949
    5.9375740203    7.7342701635    5.4136899671
    7.7395643556    2.9170190003    1.2475258139
    7.7395643556    6.7174833260   12.0749057481
    1.5406111028    6.9351652715    7.0856551281
    1.5406111028    2.6993370548    6.2367764339
    3.0184350225    7.5165882179    0.4244393471
    3.0184350225    2.1179141084   12.8979922149
    7.5774811478    2.6993370548    6.2367764339
    7.5774811478    6.9351652715    7.0856551281
    6.0996572282    2.1179141084   12.8979922149
    6.0996572282    7.5165882179    0.4244393471
