C                                                                               
1
    2.1385786628   -1.2161899985   -0.1484475355
    0.0000000000    2.4602107246    0.1484475355
    0.0000000000    0.0000000000    3.7381280243
2                                                                               
cartesian
    0.3553954179    1.8492554232    3.8368815240
    1.7831832449   -0.6052346971   -0.0987534998
