C                                                                               
1
    4.7116496301   -2.8290527447   -1.8583824159
    0.0000000000    5.4957421400   -1.8583824159
    0.0000000000    0.0000000000    5.8014452400
12                                                                              
cartesian
    0.5714712720    4.4860360932   -1.8583824159
    4.1401783582   -1.8193466979   -1.8583824159
    0.5714712720    0.3234400901    0.9565002938
    4.1401783582    2.3432493053    1.1281801145
    1.8294722999    4.2316215646    3.2774868787
    4.5696452219   -0.6098626957   -2.5239583614
    1.8294722999    1.0354408252    0.9843040598
    4.5696452219    2.5863180436   -0.2307755425
    2.8821773302   -1.5649321692   -1.1928064704
    0.1420044082    3.2765520910    4.6086387696
    2.8821773302    1.6312485701    1.1003763485
    0.1420044082    0.0803713517    2.3154559507
