C                                                                               
1
    2.1843332083   -1.2611253658    0.0000000000
    0.0000000000    2.5222507316    0.0000000000
    0.0000000000    0.0000000000   12.4339222119
12                                                                              
cartesian
    0.7281110621    1.2611253784   10.6292627421
    1.4562221461   -0.0000000126    4.4123016361
    0.7281110621    1.2611253784    6.4751515007
    1.4562221461   -0.0000000126    1.8046594698
    1.4562221461   -0.0000000126    5.9587707112
    0.0000000000    0.0000000000    2.3239249293
    0.7281110621    1.2611253784   12.1757318172
    1.4562221461   -0.0000000126    0.2581903947
    0.0000000000    0.0000000000   10.1099972827
    0.7281110621    1.2611253784    8.0216205758
    0.0000000000    0.0000000000    3.8930361767
    0.0000000000    0.0000000000    8.5408860352
