K-Path Generated by VASPKIT.
   60
Line-Mode
Reciprocal
      0.00000      0.00000          -0.50000    Z
      0.00000        0.00000        0.00000    G
      
      0.00000        0.00000         0.00000    G
      0.00000        0.00000         0.500000    Z

      
