Primitive Cell
1.0
        4.2986288071         0.0000000000         0.0000000000
       -2.1493144035         3.7227217484         0.0000000000
        2.1493146629         1.2409073992         7.1570665352
   Cu    I
    2    2
Direct
     0.754030056         0.877015014         0.368954968
     0.245970031         0.122985000         0.631044972
     0.000000000         0.000000000         0.000000000
     0.0000000           0.500000018         0.5