POSCAR Gen by MATLAB
1
  181.945152  0.000000  0.000000
  -90.972576  157.569124  0.000000
  2.149315  1.240907  7.157067
Cu I 
  3200 3200 
Direct
  0.045295  0.048201  0.368955  
  0.045295  0.071827  0.368955  
  0.045295  0.095453  0.368955  
  0.045295  0.119079  0.368955  
  0.045295  0.142705  0.368955  
  0.045295  0.166331  0.368955  
  0.045295  0.189957  0.368955  
  0.045295  0.213583  0.368955  
  0.045295  0.237209  0.368955  
  0.045295  0.260835  0.368955  
  0.045295  0.284461  0.368955  
  0.045295  0.308087  0.368955  
  0.045295  0.331713  0.368955  
  0.045295  0.355339  0.368955  
  0.045295  0.378965  0.368955  
  0.045295  0.402591  0.368955  
  0.045295  0.426216  0.368955  
  0.045295  0.449842  0.368955  
  0.045295  0.473468  0.368955  
  0.045295  0.497094  0.368955  
  0.045295  0.520720  0.368955  
  0.045295  0.544346  0.368955  
  0.045295  0.567972  0.368955  
  0.045295  0.591598  0.368955  
  0.045295  0.615224  0.368955  
  0.045295  0.638850  0.368955  
  0.045295  0.662476  0.368955  
  0.045295  0.686102  0.368955  
  0.045295  0.709728  0.368955  
  0.045295  0.733354  0.368955  
  0.045295  0.756980  0.368955  
  0.045295  0.780606  0.368955  
  0.045295  0.804232  0.368955  
  0.045295  0.827858  0.368955  
  0.045295  0.851484  0.368955  
  0.045295  0.875110  0.368955  
  0.045295  0.898736  0.368955  
  0.045295  0.922362  0.368955  
  0.045295  0.945988  0.368955  
  0.045295  0.969614  0.368955  
  0.068921  0.048201  0.368955  
  0.068921  0.071827  0.368955  
  0.068921  0.095453  0.368955  
  0.068921  0.119079  0.368955  
  0.068921  0.142705  0.368955  
  0.068921  0.166331  0.368955  
  0.068921  0.189957  0.368955  
  0.068921  0.213583  0.368955  
  0.068921  0.237209  0.368955  
  0.068921  0.260835  0.368955  
  0.068921  0.284461  0.368955  
  0.068921  0.308087  0.368955  
  0.068921  0.331713  0.368955  
  0.068921  0.355339  0.368955  
  0.068921  0.378965  0.368955  
  0.068921  0.402591  0.368955  
  0.068921  0.426216  0.368955  
  0.068921  0.449842  0.368955  
  0.068921  0.473468  0.368955  
  0.068921  0.497094  0.368955  
  0.068921  0.520720  0.368955  
  0.068921  0.544346  0.368955  
  0.068921  0.567972  0.368955  
  0.068921  0.591598  0.368955  
  0.068921  0.615224  0.368955  
  0.068921  0.638850  0.368955  
  0.068921  0.662476  0.368955  
  0.068921  0.686102  0.368955  
  0.068921  0.709728  0.368955  
  0.068921  0.733354  0.368955  
  0.068921  0.756980  0.368955  
  0.068921  0.780606  0.368955  
  0.068921  0.804232  0.368955  
  0.068921  0.827858  0.368955  
  0.068921  0.851484  0.368955  
  0.068921  0.875110  0.368955  
  0.068921  0.898736  0.368955  
  0.068921  0.922362  0.368955  
  0.068921  0.945988  0.368955  
  0.068921  0.969614  0.368955  
  0.092547  0.048201  0.368955  
  0.092547  0.071827  0.368955  
  0.092547  0.095453  0.368955  
  0.092547  0.119079  0.368955  
  0.092547  0.142705  0.368955  
  0.092547  0.166331  0.368955  
  0.092547  0.189957  0.368955  
  0.092547  0.213583  0.368955  
  0.092547  0.237209  0.368955  
  0.092547  0.260835  0.368955  
  0.092547  0.284461  0.368955  
  0.092547  0.308087  0.368955  
  0.092547  0.331713  0.368955  
  0.092547  0.355339  0.368955  
  0.092547  0.378965  0.368955  
  0.092547  0.402591  0.368955  
  0.092547  0.426216  0.368955  
  0.092547  0.449842  0.368955  
  0.092547  0.473468  0.368955  
  0.092547  0.497094  0.368955  
  0.092547  0.520720  0.368955  
  0.092547  0.544346  0.368955  
  0.092547  0.567972  0.368955  
  0.092547  0.591598  0.368955  
  0.092547  0.615224  0.368955  
  0.092547  0.638850  0.368955  
  0.092547  0.662476  0.368955  
  0.092547  0.686102  0.368955  
  0.092547  0.709728  0.368955  
  0.092547  0.733354  0.368955  
  0.092547  0.756980  0.368955  
  0.092547  0.780606  0.368955  
  0.092547  0.804232  0.368955  
  0.092547  0.827858  0.368955  
  0.092547  0.851484  0.368955  
  0.092547  0.875110  0.368955  
  0.092547  0.898736  0.368955  
  0.092547  0.922362  0.368955  
  0.092547  0.945988  0.368955  
  0.092547  0.969614  0.368955  
  0.116173  0.048201  0.368955  
  0.116173  0.071827  0.368955  
  0.116173  0.095453  0.368955  
  0.116173  0.119079  0.368955  
  0.116173  0.142705  0.368955  
  0.116173  0.166331  0.368955  
  0.116173  0.189957  0.368955  
  0.116173  0.213583  0.368955  
  0.116173  0.237209  0.368955  
  0.116173  0.260835  0.368955  
  0.116173  0.284461  0.368955  
  0.116173  0.308087  0.368955  
  0.116173  0.331713  0.368955  
  0.116173  0.355339  0.368955  
  0.116173  0.378965  0.368955  
  0.116173  0.402591  0.368955  
  0.116173  0.426216  0.368955  
  0.116173  0.449842  0.368955  
  0.116173  0.473468  0.368955  
  0.116173  0.497094  0.368955  
  0.116173  0.520720  0.368955  
  0.116173  0.544346  0.368955  
  0.116173  0.567972  0.368955  
  0.116173  0.591598  0.368955  
  0.116173  0.615224  0.368955  
  0.116173  0.638850  0.368955  
  0.116173  0.662476  0.368955  
  0.116173  0.686102  0.368955  
  0.116173  0.709728  0.368955  
  0.116173  0.733354  0.368955  
  0.116173  0.756980  0.368955  
  0.116173  0.780606  0.368955  
  0.116173  0.804232  0.368955  
  0.116173  0.827858  0.368955  
  0.116173  0.851484  0.368955  
  0.116173  0.875110  0.368955  
  0.116173  0.898736  0.368955  
  0.116173  0.922362  0.368955  
  0.116173  0.945988  0.368955  
  0.116173  0.969614  0.368955  
  0.139799  0.048201  0.368955  
  0.139799  0.071827  0.368955  
  0.139799  0.095453  0.368955  
  0.139799  0.119079  0.368955  
  0.139799  0.142705  0.368955  
  0.139799  0.166331  0.368955  
  0.139799  0.189957  0.368955  
  0.139799  0.213583  0.368955  
  0.139799  0.237209  0.368955  
  0.139799  0.260835  0.368955  
  0.139799  0.284461  0.368955  
  0.139799  0.308087  0.368955  
  0.139799  0.331713  0.368955  
  0.139799  0.355339  0.368955  
  0.139799  0.378965  0.368955  
  0.139799  0.402591  0.368955  
  0.139799  0.426216  0.368955  
  0.139799  0.449842  0.368955  
  0.139799  0.473468  0.368955  
  0.139799  0.497094  0.368955  
  0.139799  0.520720  0.368955  
  0.139799  0.544346  0.368955  
  0.139799  0.567972  0.368955  
  0.139799  0.591598  0.368955  
  0.139799  0.615224  0.368955  
  0.139799  0.638850  0.368955  
  0.139799  0.662476  0.368955  
  0.139799  0.686102  0.368955  
  0.139799  0.709728  0.368955  
  0.139799  0.733354  0.368955  
  0.139799  0.756980  0.368955  
  0.139799  0.780606  0.368955  
  0.139799  0.804232  0.368955  
  0.139799  0.827858  0.368955  
  0.139799  0.851484  0.368955  
  0.139799  0.875110  0.368955  
  0.139799  0.898736  0.368955  
  0.139799  0.922362  0.368955  
  0.139799  0.945988  0.368955  
  0.139799  0.969614  0.368955  
  0.163425  0.048201  0.368955  
  0.163425  0.071827  0.368955  
  0.163425  0.095453  0.368955  
  0.163425  0.119079  0.368955  
  0.163425  0.142705  0.368955  
  0.163425  0.166331  0.368955  
  0.163425  0.189957  0.368955  
  0.163425  0.213583  0.368955  
  0.163425  0.237209  0.368955  
  0.163425  0.260835  0.368955  
  0.163425  0.284461  0.368955  
  0.163425  0.308087  0.368955  
  0.163425  0.331713  0.368955  
  0.163425  0.355339  0.368955  
  0.163425  0.378965  0.368955  
  0.163425  0.402591  0.368955  
  0.163425  0.426216  0.368955  
  0.163425  0.449842  0.368955  
  0.163425  0.473468  0.368955  
  0.163425  0.497094  0.368955  
  0.163425  0.520720  0.368955  
  0.163425  0.544346  0.368955  
  0.163425  0.567972  0.368955  
  0.163425  0.591598  0.368955  
  0.163425  0.615224  0.368955  
  0.163425  0.638850  0.368955  
  0.163425  0.662476  0.368955  
  0.163425  0.686102  0.368955  
  0.163425  0.709728  0.368955  
  0.163425  0.733354  0.368955  
  0.163425  0.756980  0.368955  
  0.163425  0.780606  0.368955  
  0.163425  0.804232  0.368955  
  0.163425  0.827858  0.368955  
  0.163425  0.851484  0.368955  
  0.163425  0.875110  0.368955  
  0.163425  0.898736  0.368955  
  0.163425  0.922362  0.368955  
  0.163425  0.945988  0.368955  
  0.163425  0.969614  0.368955  
  0.187051  0.048201  0.368955  
  0.187051  0.071827  0.368955  
  0.187051  0.095453  0.368955  
  0.187051  0.119079  0.368955  
  0.187051  0.142705  0.368955  
  0.187051  0.166331  0.368955  
  0.187051  0.189957  0.368955  
  0.187051  0.213583  0.368955  
  0.187051  0.237209  0.368955  
  0.187051  0.260835  0.368955  
  0.187051  0.284461  0.368955  
  0.187051  0.308087  0.368955  
  0.187051  0.331713  0.368955  
  0.187051  0.355339  0.368955  
  0.187051  0.378965  0.368955  
  0.187051  0.402591  0.368955  
  0.187051  0.426216  0.368955  
  0.187051  0.449842  0.368955  
  0.187051  0.473468  0.368955  
  0.187051  0.497094  0.368955  
  0.187051  0.520720  0.368955  
  0.187051  0.544346  0.368955  
  0.187051  0.567972  0.368955  
  0.187051  0.591598  0.368955  
  0.187051  0.615224  0.368955  
  0.187051  0.638850  0.368955  
  0.187051  0.662476  0.368955  
  0.187051  0.686102  0.368955  
  0.187051  0.709728  0.368955  
  0.187051  0.733354  0.368955  
  0.187051  0.756980  0.368955  
  0.187051  0.780606  0.368955  
  0.187051  0.804232  0.368955  
  0.187051  0.827858  0.368955  
  0.187051  0.851484  0.368955  
  0.187051  0.875110  0.368955  
  0.187051  0.898736  0.368955  
  0.187051  0.922362  0.368955  
  0.187051  0.945988  0.368955  
  0.187051  0.969614  0.368955  
  0.210677  0.048201  0.368955  
  0.210677  0.071827  0.368955  
  0.210677  0.095453  0.368955  
  0.210677  0.119079  0.368955  
  0.210677  0.142705  0.368955  
  0.210677  0.166331  0.368955  
  0.210677  0.189957  0.368955  
  0.210677  0.213583  0.368955  
  0.210677  0.237209  0.368955  
  0.210677  0.260835  0.368955  
  0.210677  0.284461  0.368955  
  0.210677  0.308087  0.368955  
  0.210677  0.331713  0.368955  
  0.210677  0.355339  0.368955  
  0.210677  0.378965  0.368955  
  0.210677  0.402591  0.368955  
  0.210677  0.426216  0.368955  
  0.210677  0.449842  0.368955  
  0.210677  0.473468  0.368955  
  0.210677  0.497094  0.368955  
  0.210677  0.520720  0.368955  
  0.210677  0.544346  0.368955  
  0.210677  0.567972  0.368955  
  0.210677  0.591598  0.368955  
  0.210677  0.615224  0.368955  
  0.210677  0.638850  0.368955  
  0.210677  0.662476  0.368955  
  0.210677  0.686102  0.368955  
  0.210677  0.709728  0.368955  
  0.210677  0.733354  0.368955  
  0.210677  0.756980  0.368955  
  0.210677  0.780606  0.368955  
  0.210677  0.804232  0.368955  
  0.210677  0.827858  0.368955  
  0.210677  0.851484  0.368955  
  0.210677  0.875110  0.368955  
  0.210677  0.898736  0.368955  
  0.210677  0.922362  0.368955  
  0.210677  0.945988  0.368955  
  0.210677  0.969614  0.368955  
  0.234303  0.048201  0.368955  
  0.234303  0.071827  0.368955  
  0.234303  0.095453  0.368955  
  0.234303  0.119079  0.368955  
  0.234303  0.142705  0.368955  
  0.234303  0.166331  0.368955  
  0.234303  0.189957  0.368955  
  0.234303  0.213583  0.368955  
  0.234303  0.237209  0.368955  
  0.234303  0.260835  0.368955  
  0.234303  0.284461  0.368955  
  0.234303  0.308087  0.368955  
  0.234303  0.331713  0.368955  
  0.234303  0.355339  0.368955  
  0.234303  0.378965  0.368955  
  0.234303  0.402591  0.368955  
  0.234303  0.426216  0.368955  
  0.234303  0.449842  0.368955  
  0.234303  0.473468  0.368955  
  0.234303  0.497094  0.368955  
  0.234303  0.520720  0.368955  
  0.234303  0.544346  0.368955  
  0.234303  0.567972  0.368955  
  0.234303  0.591598  0.368955  
  0.234303  0.615224  0.368955  
  0.234303  0.638850  0.368955  
  0.234303  0.662476  0.368955  
  0.234303  0.686102  0.368955  
  0.234303  0.709728  0.368955  
  0.234303  0.733354  0.368955  
  0.234303  0.756980  0.368955  
  0.234303  0.780606  0.368955  
  0.234303  0.804232  0.368955  
  0.234303  0.827858  0.368955  
  0.234303  0.851484  0.368955  
  0.234303  0.875110  0.368955  
  0.234303  0.898736  0.368955  
  0.234303  0.922362  0.368955  
  0.234303  0.945988  0.368955  
  0.234303  0.969614  0.368955  
  0.257929  0.048201  0.368955  
  0.257929  0.071827  0.368955  
  0.257929  0.095453  0.368955  
  0.257929  0.119079  0.368955  
  0.257929  0.142705  0.368955  
  0.257929  0.166331  0.368955  
  0.257929  0.189957  0.368955  
  0.257929  0.213583  0.368955  
  0.257929  0.237209  0.368955  
  0.257929  0.260835  0.368955  
  0.257929  0.284461  0.368955  
  0.257929  0.308087  0.368955  
  0.257929  0.331713  0.368955  
  0.257929  0.355339  0.368955  
  0.257929  0.378965  0.368955  
  0.257929  0.402591  0.368955  
  0.257929  0.426216  0.368955  
  0.257929  0.449842  0.368955  
  0.257929  0.473468  0.368955  
  0.257929  0.497094  0.368955  
  0.257929  0.520720  0.368955  
  0.257929  0.544346  0.368955  
  0.257929  0.567972  0.368955  
  0.257929  0.591598  0.368955  
  0.257929  0.615224  0.368955  
  0.257929  0.638850  0.368955  
  0.257929  0.662476  0.368955  
  0.257929  0.686102  0.368955  
  0.257929  0.709728  0.368955  
  0.257929  0.733354  0.368955  
  0.257929  0.756980  0.368955  
  0.257929  0.780606  0.368955  
  0.257929  0.804232  0.368955  
  0.257929  0.827858  0.368955  
  0.257929  0.851484  0.368955  
  0.257929  0.875110  0.368955  
  0.257929  0.898736  0.368955  
  0.257929  0.922362  0.368955  
  0.257929  0.945988  0.368955  
  0.257929  0.969614  0.368955  
  0.281555  0.048201  0.368955  
  0.281555  0.071827  0.368955  
  0.281555  0.095453  0.368955  
  0.281555  0.119079  0.368955  
  0.281555  0.142705  0.368955  
  0.281555  0.166331  0.368955  
  0.281555  0.189957  0.368955  
  0.281555  0.213583  0.368955  
  0.281555  0.237209  0.368955  
  0.281555  0.260835  0.368955  
  0.281555  0.284461  0.368955  
  0.281555  0.308087  0.368955  
  0.281555  0.331713  0.368955  
  0.281555  0.355339  0.368955  
  0.281555  0.378965  0.368955  
  0.281555  0.402591  0.368955  
  0.281555  0.426216  0.368955  
  0.281555  0.449842  0.368955  
  0.281555  0.473468  0.368955  
  0.281555  0.497094  0.368955  
  0.281555  0.520720  0.368955  
  0.281555  0.544346  0.368955  
  0.281555  0.567972  0.368955  
  0.281555  0.591598  0.368955  
  0.281555  0.615224  0.368955  
  0.281555  0.638850  0.368955  
  0.281555  0.662476  0.368955  
  0.281555  0.686102  0.368955  
  0.281555  0.709728  0.368955  
  0.281555  0.733354  0.368955  
  0.281555  0.756980  0.368955  
  0.281555  0.780606  0.368955  
  0.281555  0.804232  0.368955  
  0.281555  0.827858  0.368955  
  0.281555  0.851484  0.368955  
  0.281555  0.875110  0.368955  
  0.281555  0.898736  0.368955  
  0.281555  0.922362  0.368955  
  0.281555  0.945988  0.368955  
  0.281555  0.969614  0.368955  
  0.305181  0.048201  0.368955  
  0.305181  0.071827  0.368955  
  0.305181  0.095453  0.368955  
  0.305181  0.119079  0.368955  
  0.305181  0.142705  0.368955  
  0.305181  0.166331  0.368955  
  0.305181  0.189957  0.368955  
  0.305181  0.213583  0.368955  
  0.305181  0.237209  0.368955  
  0.305181  0.260835  0.368955  
  0.305181  0.284461  0.368955  
  0.305181  0.308087  0.368955  
  0.305181  0.331713  0.368955  
  0.305181  0.355339  0.368955  
  0.305181  0.378965  0.368955  
  0.305181  0.402591  0.368955  
  0.305181  0.426216  0.368955  
  0.305181  0.449842  0.368955  
  0.305181  0.473468  0.368955  
  0.305181  0.497094  0.368955  
  0.305181  0.520720  0.368955  
  0.305181  0.544346  0.368955  
  0.305181  0.567972  0.368955  
  0.305181  0.591598  0.368955  
  0.305181  0.615224  0.368955  
  0.305181  0.638850  0.368955  
  0.305181  0.662476  0.368955  
  0.305181  0.686102  0.368955  
  0.305181  0.709728  0.368955  
  0.305181  0.733354  0.368955  
  0.305181  0.756980  0.368955  
  0.305181  0.780606  0.368955  
  0.305181  0.804232  0.368955  
  0.305181  0.827858  0.368955  
  0.305181  0.851484  0.368955  
  0.305181  0.875110  0.368955  
  0.305181  0.898736  0.368955  
  0.305181  0.922362  0.368955  
  0.305181  0.945988  0.368955  
  0.305181  0.969614  0.368955  
  0.328807  0.048201  0.368955  
  0.328807  0.071827  0.368955  
  0.328807  0.095453  0.368955  
  0.328807  0.119079  0.368955  
  0.328807  0.142705  0.368955  
  0.328807  0.166331  0.368955  
  0.328807  0.189957  0.368955  
  0.328807  0.213583  0.368955  
  0.328807  0.237209  0.368955  
  0.328807  0.260835  0.368955  
  0.328807  0.284461  0.368955  
  0.328807  0.308087  0.368955  
  0.328807  0.331713  0.368955  
  0.328807  0.355339  0.368955  
  0.328807  0.378965  0.368955  
  0.328807  0.402591  0.368955  
  0.328807  0.426216  0.368955  
  0.328807  0.449842  0.368955  
  0.328807  0.473468  0.368955  
  0.328807  0.497094  0.368955  
  0.328807  0.520720  0.368955  
  0.328807  0.544346  0.368955  
  0.328807  0.567972  0.368955  
  0.328807  0.591598  0.368955  
  0.328807  0.615224  0.368955  
  0.328807  0.638850  0.368955  
  0.328807  0.662476  0.368955  
  0.328807  0.686102  0.368955  
  0.328807  0.709728  0.368955  
  0.328807  0.733354  0.368955  
  0.328807  0.756980  0.368955  
  0.328807  0.780606  0.368955  
  0.328807  0.804232  0.368955  
  0.328807  0.827858  0.368955  
  0.328807  0.851484  0.368955  
  0.328807  0.875110  0.368955  
  0.328807  0.898736  0.368955  
  0.328807  0.922362  0.368955  
  0.328807  0.945988  0.368955  
  0.328807  0.969614  0.368955  
  0.352433  0.048201  0.368955  
  0.352433  0.071827  0.368955  
  0.352433  0.095453  0.368955  
  0.352433  0.119079  0.368955  
  0.352433  0.142705  0.368955  
  0.352433  0.166331  0.368955  
  0.352433  0.189957  0.368955  
  0.352433  0.213583  0.368955  
  0.352433  0.237209  0.368955  
  0.352433  0.260835  0.368955  
  0.352433  0.284461  0.368955  
  0.352433  0.308087  0.368955  
  0.352433  0.331713  0.368955  
  0.352433  0.355339  0.368955  
  0.352433  0.378965  0.368955  
  0.352433  0.402591  0.368955  
  0.352433  0.426216  0.368955  
  0.352433  0.449842  0.368955  
  0.352433  0.473468  0.368955  
  0.352433  0.497094  0.368955  
  0.352433  0.520720  0.368955  
  0.352433  0.544346  0.368955  
  0.352433  0.567972  0.368955  
  0.352433  0.591598  0.368955  
  0.352433  0.615224  0.368955  
  0.352433  0.638850  0.368955  
  0.352433  0.662476  0.368955  
  0.352433  0.686102  0.368955  
  0.352433  0.709728  0.368955  
  0.352433  0.733354  0.368955  
  0.352433  0.756980  0.368955  
  0.352433  0.780606  0.368955  
  0.352433  0.804232  0.368955  
  0.352433  0.827858  0.368955  
  0.352433  0.851484  0.368955  
  0.352433  0.875110  0.368955  
  0.352433  0.898736  0.368955  
  0.352433  0.922362  0.368955  
  0.352433  0.945988  0.368955  
  0.352433  0.969614  0.368955  
  0.376059  0.048201  0.368955  
  0.376059  0.071827  0.368955  
  0.376059  0.095453  0.368955  
  0.376059  0.119079  0.368955  
  0.376059  0.142705  0.368955  
  0.376059  0.166331  0.368955  
  0.376059  0.189957  0.368955  
  0.376059  0.213583  0.368955  
  0.376059  0.237209  0.368955  
  0.376059  0.260835  0.368955  
  0.376059  0.284461  0.368955  
  0.376059  0.308087  0.368955  
  0.376059  0.331713  0.368955  
  0.376059  0.355339  0.368955  
  0.376059  0.378965  0.368955  
  0.376059  0.402591  0.368955  
  0.376059  0.426216  0.368955  
  0.376059  0.449842  0.368955  
  0.376059  0.473468  0.368955  
  0.376059  0.497094  0.368955  
  0.376059  0.520720  0.368955  
  0.376059  0.544346  0.368955  
  0.376059  0.567972  0.368955  
  0.376059  0.591598  0.368955  
  0.376059  0.615224  0.368955  
  0.376059  0.638850  0.368955  
  0.376059  0.662476  0.368955  
  0.376059  0.686102  0.368955  
  0.376059  0.709728  0.368955  
  0.376059  0.733354  0.368955  
  0.376059  0.756980  0.368955  
  0.376059  0.780606  0.368955  
  0.376059  0.804232  0.368955  
  0.376059  0.827858  0.368955  
  0.376059  0.851484  0.368955  
  0.376059  0.875110  0.368955  
  0.376059  0.898736  0.368955  
  0.376059  0.922362  0.368955  
  0.376059  0.945988  0.368955  
  0.376059  0.969614  0.368955  
  0.399685  0.048201  0.368955  
  0.399685  0.071827  0.368955  
  0.399685  0.095453  0.368955  
  0.399685  0.119079  0.368955  
  0.399685  0.142705  0.368955  
  0.399685  0.166331  0.368955  
  0.399685  0.189957  0.368955  
  0.399685  0.213583  0.368955  
  0.399685  0.237209  0.368955  
  0.399685  0.260835  0.368955  
  0.399685  0.284461  0.368955  
  0.399685  0.308087  0.368955  
  0.399685  0.331713  0.368955  
  0.399685  0.355339  0.368955  
  0.399685  0.378965  0.368955  
  0.399685  0.402591  0.368955  
  0.399685  0.426216  0.368955  
  0.399685  0.449842  0.368955  
  0.399685  0.473468  0.368955  
  0.399685  0.497094  0.368955  
  0.399685  0.520720  0.368955  
  0.399685  0.544346  0.368955  
  0.399685  0.567972  0.368955  
  0.399685  0.591598  0.368955  
  0.399685  0.615224  0.368955  
  0.399685  0.638850  0.368955  
  0.399685  0.662476  0.368955  
  0.399685  0.686102  0.368955  
  0.399685  0.709728  0.368955  
  0.399685  0.733354  0.368955  
  0.399685  0.756980  0.368955  
  0.399685  0.780606  0.368955  
  0.399685  0.804232  0.368955  
  0.399685  0.827858  0.368955  
  0.399685  0.851484  0.368955  
  0.399685  0.875110  0.368955  
  0.399685  0.898736  0.368955  
  0.399685  0.922362  0.368955  
  0.399685  0.945988  0.368955  
  0.399685  0.969614  0.368955  
  0.423311  0.048201  0.368955  
  0.423311  0.071827  0.368955  
  0.423311  0.095453  0.368955  
  0.423311  0.119079  0.368955  
  0.423311  0.142705  0.368955  
  0.423311  0.166331  0.368955  
  0.423311  0.189957  0.368955  
  0.423311  0.213583  0.368955  
  0.423311  0.237209  0.368955  
  0.423311  0.260835  0.368955  
  0.423311  0.284461  0.368955  
  0.423311  0.308087  0.368955  
  0.423311  0.331713  0.368955  
  0.423311  0.355339  0.368955  
  0.423311  0.378965  0.368955  
  0.423311  0.402591  0.368955  
  0.423311  0.426216  0.368955  
  0.423311  0.449842  0.368955  
  0.423311  0.473468  0.368955  
  0.423311  0.497094  0.368955  
  0.423311  0.520720  0.368955  
  0.423311  0.544346  0.368955  
  0.423311  0.567972  0.368955  
  0.423311  0.591598  0.368955  
  0.423311  0.615224  0.368955  
  0.423311  0.638850  0.368955  
  0.423311  0.662476  0.368955  
  0.423311  0.686102  0.368955  
  0.423311  0.709728  0.368955  
  0.423311  0.733354  0.368955  
  0.423311  0.756980  0.368955  
  0.423311  0.780606  0.368955  
  0.423311  0.804232  0.368955  
  0.423311  0.827858  0.368955  
  0.423311  0.851484  0.368955  
  0.423311  0.875110  0.368955  
  0.423311  0.898736  0.368955  
  0.423311  0.922362  0.368955  
  0.423311  0.945988  0.368955  
  0.423311  0.969614  0.368955  
  0.446937  0.048201  0.368955  
  0.446937  0.071827  0.368955  
  0.446937  0.095453  0.368955  
  0.446937  0.119079  0.368955  
  0.446937  0.142705  0.368955  
  0.446937  0.166331  0.368955  
  0.446937  0.189957  0.368955  
  0.446937  0.213583  0.368955  
  0.446937  0.237209  0.368955  
  0.446937  0.260835  0.368955  
  0.446937  0.284461  0.368955  
  0.446937  0.308087  0.368955  
  0.446937  0.331713  0.368955  
  0.446937  0.355339  0.368955  
  0.446937  0.378965  0.368955  
  0.446937  0.402591  0.368955  
  0.446937  0.426216  0.368955  
  0.446937  0.449842  0.368955  
  0.446937  0.473468  0.368955  
  0.446937  0.497094  0.368955  
  0.446937  0.520720  0.368955  
  0.446937  0.544346  0.368955  
  0.446937  0.567972  0.368955  
  0.446937  0.591598  0.368955  
  0.446937  0.615224  0.368955  
  0.446937  0.638850  0.368955  
  0.446937  0.662476  0.368955  
  0.446937  0.686102  0.368955  
  0.446937  0.709728  0.368955  
  0.446937  0.733354  0.368955  
  0.446937  0.756980  0.368955  
  0.446937  0.780606  0.368955  
  0.446937  0.804232  0.368955  
  0.446937  0.827858  0.368955  
  0.446937  0.851484  0.368955  
  0.446937  0.875110  0.368955  
  0.446937  0.898736  0.368955  
  0.446937  0.922362  0.368955  
  0.446937  0.945988  0.368955  
  0.446937  0.969614  0.368955  
  0.470563  0.048201  0.368955  
  0.470563  0.071827  0.368955  
  0.470563  0.095453  0.368955  
  0.470563  0.119079  0.368955  
  0.470563  0.142705  0.368955  
  0.470563  0.166331  0.368955  
  0.470563  0.189957  0.368955  
  0.470563  0.213583  0.368955  
  0.470563  0.237209  0.368955  
  0.470563  0.260835  0.368955  
  0.470563  0.284461  0.368955  
  0.470563  0.308087  0.368955  
  0.470563  0.331713  0.368955  
  0.470563  0.355339  0.368955  
  0.470563  0.378965  0.368955  
  0.470563  0.402591  0.368955  
  0.470563  0.426216  0.368955  
  0.470563  0.449842  0.368955  
  0.470563  0.473468  0.368955  
  0.470563  0.497094  0.368955  
  0.470563  0.520720  0.368955  
  0.470563  0.544346  0.368955  
  0.470563  0.567972  0.368955  
  0.470563  0.591598  0.368955  
  0.470563  0.615224  0.368955  
  0.470563  0.638850  0.368955  
  0.470563  0.662476  0.368955  
  0.470563  0.686102  0.368955  
  0.470563  0.709728  0.368955  
  0.470563  0.733354  0.368955  
  0.470563  0.756980  0.368955  
  0.470563  0.780606  0.368955  
  0.470563  0.804232  0.368955  
  0.470563  0.827858  0.368955  
  0.470563  0.851484  0.368955  
  0.470563  0.875110  0.368955  
  0.470563  0.898736  0.368955  
  0.470563  0.922362  0.368955  
  0.470563  0.945988  0.368955  
  0.470563  0.969614  0.368955  
  0.494189  0.048201  0.368955  
  0.494189  0.071827  0.368955  
  0.494189  0.095453  0.368955  
  0.494189  0.119079  0.368955  
  0.494189  0.142705  0.368955  
  0.494189  0.166331  0.368955  
  0.494189  0.189957  0.368955  
  0.494189  0.213583  0.368955  
  0.494189  0.237209  0.368955  
  0.494189  0.260835  0.368955  
  0.494189  0.284461  0.368955  
  0.494189  0.308087  0.368955  
  0.494189  0.331713  0.368955  
  0.494189  0.355339  0.368955  
  0.494189  0.378965  0.368955  
  0.494189  0.402591  0.368955  
  0.494189  0.426216  0.368955  
  0.494189  0.449842  0.368955  
  0.494189  0.473468  0.368955  
  0.494189  0.497094  0.368955  
  0.494189  0.520720  0.368955  
  0.494189  0.544346  0.368955  
  0.494189  0.567972  0.368955  
  0.494189  0.591598  0.368955  
  0.494189  0.615224  0.368955  
  0.494189  0.638850  0.368955  
  0.494189  0.662476  0.368955  
  0.494189  0.686102  0.368955  
  0.494189  0.709728  0.368955  
  0.494189  0.733354  0.368955  
  0.494189  0.756980  0.368955  
  0.494189  0.780606  0.368955  
  0.494189  0.804232  0.368955  
  0.494189  0.827858  0.368955  
  0.494189  0.851484  0.368955  
  0.494189  0.875110  0.368955  
  0.494189  0.898736  0.368955  
  0.494189  0.922362  0.368955  
  0.494189  0.945988  0.368955  
  0.494189  0.969614  0.368955  
  0.517815  0.048201  0.368955  
  0.517815  0.071827  0.368955  
  0.517815  0.095453  0.368955  
  0.517815  0.119079  0.368955  
  0.517815  0.142705  0.368955  
  0.517815  0.166331  0.368955  
  0.517815  0.189957  0.368955  
  0.517815  0.213583  0.368955  
  0.517815  0.237209  0.368955  
  0.517815  0.260835  0.368955  
  0.517815  0.284461  0.368955  
  0.517815  0.308087  0.368955  
  0.517815  0.331713  0.368955  
  0.517815  0.355339  0.368955  
  0.517815  0.378965  0.368955  
  0.517815  0.402591  0.368955  
  0.517815  0.426216  0.368955  
  0.517815  0.449842  0.368955  
  0.517815  0.473468  0.368955  
  0.517815  0.497094  0.368955  
  0.517815  0.520720  0.368955  
  0.517815  0.544346  0.368955  
  0.517815  0.567972  0.368955  
  0.517815  0.591598  0.368955  
  0.517815  0.615224  0.368955  
  0.517815  0.638850  0.368955  
  0.517815  0.662476  0.368955  
  0.517815  0.686102  0.368955  
  0.517815  0.709728  0.368955  
  0.517815  0.733354  0.368955  
  0.517815  0.756980  0.368955  
  0.517815  0.780606  0.368955  
  0.517815  0.804232  0.368955  
  0.517815  0.827858  0.368955  
  0.517815  0.851484  0.368955  
  0.517815  0.875110  0.368955  
  0.517815  0.898736  0.368955  
  0.517815  0.922362  0.368955  
  0.517815  0.945988  0.368955  
  0.517815  0.969614  0.368955  
  0.541441  0.048201  0.368955  
  0.541441  0.071827  0.368955  
  0.541441  0.095453  0.368955  
  0.541441  0.119079  0.368955  
  0.541441  0.142705  0.368955  
  0.541441  0.166331  0.368955  
  0.541441  0.189957  0.368955  
  0.541441  0.213583  0.368955  
  0.541441  0.237209  0.368955  
  0.541441  0.260835  0.368955  
  0.541441  0.284461  0.368955  
  0.541441  0.308087  0.368955  
  0.541441  0.331713  0.368955  
  0.541441  0.355339  0.368955  
  0.541441  0.378965  0.368955  
  0.541441  0.402591  0.368955  
  0.541441  0.426216  0.368955  
  0.541441  0.449842  0.368955  
  0.541441  0.473468  0.368955  
  0.541441  0.497094  0.368955  
  0.541441  0.520720  0.368955  
  0.541441  0.544346  0.368955  
  0.541441  0.567972  0.368955  
  0.541441  0.591598  0.368955  
  0.541441  0.615224  0.368955  
  0.541441  0.638850  0.368955  
  0.541441  0.662476  0.368955  
  0.541441  0.686102  0.368955  
  0.541441  0.709728  0.368955  
  0.541441  0.733354  0.368955  
  0.541441  0.756980  0.368955  
  0.541441  0.780606  0.368955  
  0.541441  0.804232  0.368955  
  0.541441  0.827858  0.368955  
  0.541441  0.851484  0.368955  
  0.541441  0.875110  0.368955  
  0.541441  0.898736  0.368955  
  0.541441  0.922362  0.368955  
  0.541441  0.945988  0.368955  
  0.541441  0.969614  0.368955  
  0.565067  0.048201  0.368955  
  0.565067  0.071827  0.368955  
  0.565067  0.095453  0.368955  
  0.565067  0.119079  0.368955  
  0.565067  0.142705  0.368955  
  0.565067  0.166331  0.368955  
  0.565067  0.189957  0.368955  
  0.565067  0.213583  0.368955  
  0.565067  0.237209  0.368955  
  0.565067  0.260835  0.368955  
  0.565067  0.284461  0.368955  
  0.565067  0.308087  0.368955  
  0.565067  0.331713  0.368955  
  0.565067  0.355339  0.368955  
  0.565067  0.378965  0.368955  
  0.565067  0.402591  0.368955  
  0.565067  0.426216  0.368955  
  0.565067  0.449842  0.368955  
  0.565067  0.473468  0.368955  
  0.565067  0.497094  0.368955  
  0.565067  0.520720  0.368955  
  0.565067  0.544346  0.368955  
  0.565067  0.567972  0.368955  
  0.565067  0.591598  0.368955  