K-Path Generated by VASPKIT.
   91
Line-Mode
Reciprocal
   0.500000000   0.0000000000   -0.0000000000     X
   0.0000000000   0.0000000000   0.0000000000     GAMMA

   0.0000000000   0.0000000000   0.0000000000     GAMMA
   0.5000000000   -0.5000000000   0.0000000000     M

   -0.5000000000   0.5000000000   0.0000000000     M
   0.0000000000   0.0000000000   0.0000000000     G

   0.0000000000   0.0000000000   0.0000000000     G
   0.000000000   0.5000000000   -0.0000000000     Y