Cd24 As16
3
1 0.000000 0.000000
-0.5    0.866025403784439 0.000000
0.000000 0.000000 0.866025403784439
Cd As
2 2
direct
0.500000 0.5 0.5 Cd s I 1
0.500000 0.5 0.5 Cd p z 1
0.500000 0.5 0.5 Cd s I -1
0.500000 0.5 0.5 Cd p z -1