POSCAR Gen by MATLAB
1.0
        9.9437999725         0.0000000000         0.0000000000
       -4.9718999863         8.6115833864         0.0000000000
        0.0000000000         0.0000000000         3.3
    C
   18
Direct
     0.642857015         0.500000000         0.500000000 C p z  
     0.785713971         0.500000000         0.500000000 C p z
     0.928570986         0.500000000         0.500000000 C p z
     0.642857015         0.642857015         0.500000000 C p z
     0.785713971         0.785713971         0.500000000 C p z
     0.928570986         0.928570986         0.500000000 C p z
     0.500000000         0.642857015         0.500000000 C p z
     0.500000000         0.785713971         0.500000000 C p z
     0.500000000         0.928570986         0.500000000 C p z
     0.357143015         0.500000000         0.500000000 C p z
     0.214286000         0.500000000         0.500000000 C p z
     0.071428999         0.500000000         0.500000000 C p z
     0.357143015         0.357143015         0.500000000 C p z
     0.214286000         0.214286000         0.500000000 C p z
     0.071428999         0.071428999         0.500000000 C p z
     0.500000000         0.357143015         0.500000000 C p z
     0.500000000         0.214286000         0.500000000 C p z
     0.500000000         0.071428999         0.500000000 C p z

