ell
1.0
        4.2986288071         0.0000000000         0.0000000000
       -2.1493144035         3.7227217484         0.0000000000
        2.1493146629         1.2409073992         7.1570665352
   Cu    I
    2    2
Direct
     0.254030056         0.377015014         0.868954968
     0.745970031         0.622985000         0.131044972
     0.500000000         0.500000000         0.500000000
     0.5000000           0.000000000         0.0
 

