Cu6 I6
1.0
4.414832 0.000000 0.000000
-2.207416 3.823357 0.000000
0.000000 0.000000 20.513307
Cu I
6 6
direct
0.000000 0.000000 0.122985 Cu
0.666667 0.333333 0.210348 Cu
0.666667 0.333333 0.456318 Cu
0.333333 0.666667 0.543682 Cu
0.333333 0.666667 0.789652 Cu
0.000000 0.000000 0.877015 Cu
0.000000 0.000000 0.000000 I
0.333333 0.666667 0.166667 I
0.666667 0.333333 0.333333 I
0.000000 0.000000 0.500000 I
0.333333 0.666667 0.666667 I
0.666667 0.333333 0.833333 I
