POSCAR Gen by MATLAB
1
  1    0  0.000000
  0    1  0.000000
  0.000000  0.000000  1.000000
C 
  4 
Direc                      # element L lz S jz
 0.333333333 0.666666667 0 C S I 0.5 0.5
 0.666666667 0.33333333  0 C p z 0.5 1.5
 0.333333333 0.666666667 0 C s I 0.5 -0.5
 0.666666667 0.33333333  0 C p z 0.5 -1.5
