generated by phonopy
   3.0
     2    0.0000000000000000    0.0000000000000000
     0    4    0.0000000000000000
     0.    0.0000000000000000   4.0000000000000000
C Si 
   4 4
Direct
  0.3  0.75  0.7500000000000000  C s I
  0.1  0.25  0.7500000000000000 Si s I 
  0.3  0.25  0.2500000000000000  C s I
  0.1  0.75  0.2500000000000000 Si s I
  0.6  0.75  0.7500000000000000 Si s I
  0.8  0.25  0.7500000000000000  C s I
  0.6  0.25  0.2500000000000000 Si s I
  0.8  0.75  0.2500000000000000  C s I





