Na1
1.0
        3.6135966778         0.0000000000         0.0000000000
       -1.2045323026         3.4069315933         0.0000000000
       -1.2045323026        -1.7034659593         2.9504892149
   Na
    1
Direct
     0.000000000         0.000000000         0.000000000
