Na2
1.0
        4.1726222038         0.0000000000         0.0000000000
        0.0000000000         4.1726222038         0.0000000000
        0.0000000000         0.0000000000         4.1726222038
   Na
    2
Direct
     0.000000000         0.000000000         0.000000000
     0.500000000         0.500000000         0.500000000

