POSCAR Gen by MATLAB
1
  3.613597  0.000000  0.000000
  -1.204532  3.406932  0.000000
  -1.204532  -1.703466  2.950489
Na 
  1 
Direct
  0.000000  0.000000  0.000000  
  