POSCAR Gen by MATLAB
1
  8.345244  0.000000  0.000000
  0.000000  8.345244  0.000000
  0.000000  0.000000  4.172622
Na 
  8 
Direct
  0.000000  0.000000  0.000000  
  0.000000  0.500000  0.000000  
  0.500000  0.000000  0.000000  
  0.500000  0.500000  0.000000  
  0.250000  0.250000  0.500000  
  0.250000  0.750000  0.500000  
  0.750000  0.250000  0.500000  
  0.750000  0.750000  0.500000  
  