POSCAR Gen by vasplib
1
  10.235077  0.000000  0.000000
  -5.117539  8.863837  0.000000
  0.000000  0.000000  0.191431
C 
  200 
Direct
  0.489282  0.490047  0.250000  
  0.489282  0.492344  0.250000  
  0.489282  0.494641  0.250000  
  0.489282  0.496938  0.250000  
  0.489282  0.499234  0.250000  
  0.489282  0.501531  0.250000  
  0.489282  0.503828  0.250000  
  0.489282  0.506125  0.250000  
  0.489282  0.508422  0.250000  
  0.489282  0.510718  0.250000  
  0.491578  0.490047  0.250000  
  0.491578  0.492344  0.250000  
  0.491578  0.494641  0.250000  
  0.491578  0.496938  0.250000  
  0.491578  0.499234  0.250000  
  0.491578  0.501531  0.250000  
  0.491578  0.503828  0.250000  
  0.491578  0.506125  0.250000  
  0.491578  0.508422  0.250000  
  0.491578  0.510718  0.250000  
  0.493875  0.490047  0.250000  
  0.493875  0.492344  0.250000  
  0.493875  0.494641  0.250000  
  0.493875  0.496938  0.250000  
  0.493875  0.499234  0.250000  
  0.493875  0.501531  0.250000  
  0.493875  0.503828  0.250000  
  0.493875  0.506125  0.250000  
  0.493875  0.508422  0.250000  
  0.493875  0.510718  0.250000  
  0.496172  0.490047  0.250000  
  0.496172  0.492344  0.250000  
  0.496172  0.494641  0.250000  
  0.496172  0.496938  0.250000  
  0.496172  0.499234  0.250000  
  0.496172  0.501531  0.250000  
  0.496172  0.503828  0.250000  
  0.496172  0.506125  0.250000  
  0.496172  0.508422  0.250000  
  0.496172  0.510718  0.250000  
  0.498469  0.490047  0.250000  
  0.498469  0.492344  0.250000  
  0.498469  0.494641  0.250000  
  0.498469  0.496938  0.250000  
  0.498469  0.499234  0.250000  
  0.498469  0.501531  0.250000  
  0.498469  0.503828  0.250000  
  0.498469  0.506125  0.250000  
  0.498469  0.508422  0.250000  
  0.498469  0.510718  0.250000  
  0.500766  0.490047  0.250000  
  0.500766  0.492344  0.250000  
  0.500766  0.494641  0.250000  
  0.500766  0.496938  0.250000  
  0.500766  0.499234  0.250000  
  0.500766  0.501531  0.250000  
  0.500766  0.503828  0.250000  
  0.500766  0.506125  0.250000  
  0.500766  0.508422  0.250000  
  0.500766  0.510718  0.250000  
  0.503062  0.490047  0.250000  
  0.503062  0.492344  0.250000  
  0.503062  0.494641  0.250000  
  0.503062  0.496938  0.250000  
  0.503062  0.499234  0.250000  
  0.503062  0.501531  0.250000  
  0.503062  0.503828  0.250000  
  0.503062  0.506125  0.250000  
  0.503062  0.508422  0.250000  
  0.503062  0.510718  0.250000  
  0.505359  0.490047  0.250000  
  0.505359  0.492344  0.250000  
  0.505359  0.494641  0.250000  
  0.505359  0.496938  0.250000  
  0.505359  0.499234  0.250000  
  0.505359  0.501531  0.250000  
  0.505359  0.503828  0.250000  
  0.505359  0.506125  0.250000  
  0.505359  0.508422  0.250000  
  0.505359  0.510718  0.250000  
  0.507656  0.490047  0.250000  
  0.507656  0.492344  0.250000  
  0.507656  0.494641  0.250000  
  0.507656  0.496938  0.250000  
  0.507656  0.499234  0.250000  
  0.507656  0.501531  0.250000  
  0.507656  0.503828  0.250000  
  0.507656  0.506125  0.250000  
  0.507656  0.508422  0.250000  
  0.507656  0.510718  0.250000  
  0.509953  0.490047  0.250000  
  0.509953  0.492344  0.250000  
  0.509953  0.494641  0.250000  
  0.509953  0.496938  0.250000  
  0.509953  0.499234  0.250000  
  0.509953  0.501531  0.250000  
  0.509953  0.503828  0.250000  
  0.509953  0.506125  0.250000  
  0.509953  0.508422  0.250000  
  0.509953  0.510718  0.250000  
  0.490047  0.489282  0.250000  
  0.490047  0.491578  0.250000  
  0.490047  0.493875  0.250000  
  0.490047  0.496172  0.250000  
  0.490047  0.498469  0.250000  
  0.490047  0.500766  0.250000  
  0.490047  0.503062  0.250000  
  0.490047  0.505359  0.250000  
  0.490047  0.507656  0.250000  
  0.490047  0.509953  0.250000  
  0.492344  0.489282  0.250000  
  0.492344  0.491578  0.250000  
  0.492344  0.493875  0.250000  
  0.492344  0.496172  0.250000  
  0.492344  0.498469  0.250000  
  0.492344  0.500766  0.250000  
  0.492344  0.503062  0.250000  
  0.492344  0.505359  0.250000  
  0.492344  0.507656  0.250000  
  0.492344  0.509953  0.250000  
  0.494641  0.489282  0.250000  
  0.494641  0.491578  0.250000  
  0.494641  0.493875  0.250000  
  0.494641  0.496172  0.250000  
  0.494641  0.498469  0.250000  
  0.494641  0.500766  0.250000  
  0.494641  0.503062  0.250000  
  0.494641  0.505359  0.250000  
  0.494641  0.507656  0.250000  
  0.494641  0.509953  0.250000  
  0.496938  0.489282  0.250000  
  0.496938  0.491578  0.250000  
  0.496938  0.493875  0.250000  
  0.496938  0.496172  0.250000  
  0.496938  0.498469  0.250000  
  0.496938  0.500766  0.250000  
  0.496938  0.503062  0.250000  
  0.496938  0.505359  0.250000  
  0.496938  0.507656  0.250000  
  0.496938  0.509953  0.250000  
  0.499234  0.489282  0.250000  
  0.499234  0.491578  0.250000  
  0.499234  0.493875  0.250000  
  0.499234  0.496172  0.250000  
  0.499234  0.498469  0.250000  
  0.499234  0.500766  0.250000  
  0.499234  0.503062  0.250000  
  0.499234  0.505359  0.250000  
  0.499234  0.507656  0.250000  
  0.499234  0.509953  0.250000  
  0.501531  0.489282  0.250000  
  0.501531  0.491578  0.250000  
  0.501531  0.493875  0.250000  
  0.501531  0.496172  0.250000  
  0.501531  0.498469  0.250000  
  0.501531  0.500766  0.250000  
  0.501531  0.503062  0.250000  
  0.501531  0.505359  0.250000  
  0.501531  0.507656  0.250000  
  0.501531  0.509953  0.250000  
  0.503828  0.489282  0.250000  
  0.503828  0.491578  0.250000  
  0.503828  0.493875  0.250000  
  0.503828  0.496172  0.250000  
  0.503828  0.498469  0.250000  
  0.503828  0.500766  0.250000  
  0.503828  0.503062  0.250000  
  0.503828  0.505359  0.250000  
  0.503828  0.507656  0.250000  
  0.503828  0.509953  0.250000  
  0.506125  0.489282  0.250000  
  0.506125  0.491578  0.250000  
  0.506125  0.493875  0.250000  
  0.506125  0.496172  0.250000  
  0.506125  0.498469  0.250000  
  0.506125  0.500766  0.250000  
  0.506125  0.503062  0.250000  
  0.506125  0.505359  0.250000  
  0.506125  0.507656  0.250000  
  0.506125  0.509953  0.250000  
  0.508422  0.489282  0.250000  
  0.508422  0.491578  0.250000  
  0.508422  0.493875  0.250000  
  0.508422  0.496172  0.250000  
  0.508422  0.498469  0.250000  
  0.508422  0.500766  0.250000  
  0.508422  0.503062  0.250000  
  0.508422  0.505359  0.250000  
  0.508422  0.507656  0.250000  
  0.508422  0.509953  0.250000  
  0.510718  0.489282  0.250000  
  0.510718  0.491578  0.250000  
  0.510718  0.493875  0.250000  
  0.510718  0.496172  0.250000  
  0.510718  0.498469  0.250000  
  0.510718  0.500766  0.250000  
  0.510718  0.503062  0.250000  
  0.510718  0.505359  0.250000  
  0.510718  0.507656  0.250000  
  0.510718  0.509953  0.250000  
  