POSCAR
1.0
        6.5307998657         0.0000000000         0.0000000000
       -3.2653999329         5.6558385907         0.0000000000
        0.0000000000         0.0000000000        23.0000000000
    C
   28
Direct
     0.809570014         0.047630001         0.927169979
     0.952369988         0.761940002         0.927169979
     0.238059983         0.190429986         0.927169979
     0.190429986         0.952369988         0.927169979
     0.047630001         0.238059983         0.927169979
     0.761940002         0.809570014         0.927169979
     0.047630001         0.809570014         0.072829999
     0.761940002         0.952369988         0.072829999
     0.190429986         0.238059983         0.072829999
     0.952369988         0.190429986         0.072829999
     0.238059983         0.047630001         0.072829999
     0.809570014         0.761940002         0.072829999
     0.619069993         0.095239997         0.927169979
     0.904760003         0.523829997         0.927169979
     0.476170003         0.380930007         0.927169979
     0.380930007         0.904760003         0.927169979
     0.095239997         0.476170003         0.927169979
     0.523829997         0.619069993         0.927169979
     0.095239997         0.619069993         0.072829999
     0.523829997         0.904760003         0.072829999
     0.380930007         0.476170003         0.072829999
     0.904760003         0.380930007         0.072829999
     0.476170003         0.095239997         0.072829999
     0.619069993         0.523829997         0.072829999
     0.666666687         0.333333343         0.927169979
     0.333333313         0.666666627         0.927169979
     0.333333343         0.666666687         0.072829999
     0.666666627         0.333333313         0.072829999
