POSCAR
1.0
        2.4684164524         0.0000000000         0.0000000000
       -1.2342082262         2.1377113549         0.0000000000
        0.0000000000         0.0000000000         14.0
    C
    2
Direct
     0.333332986         0.666666985         0.000000000
     0.666666985         0.333332986         0.000000000

