POSCAR Gen by MATLAB
1
  6.852000  0.000000  0.000000
  -3.426000  5.934006  0.000000
  1.713000  0.989001  8.389667
Tm Mg Ga O 
  4 4 4 16 
Direct
  0.000000  0.000000  0.000000  
  0.000000  0.500000  0.000000  
  0.500000  0.000000  0.000000  
  0.500000  0.500000  0.000000  
  0.214700  0.107350  0.355900  
  0.214700  0.607350  0.355900  
  0.714700  0.107350  0.355900  
  0.714700  0.607350  0.355900  
  0.285300  0.392650  0.644100  
  0.285300  0.892650  0.644100  
  0.785300  0.392650  0.644100  
  0.785300  0.892650  0.644100  
  0.291070  0.145535  0.126790  
  0.291070  0.645535  0.126790  
  0.791070  0.145535  0.126790  
  0.791070  0.645535  0.126790  
  0.208930  0.354465  0.873210  
  0.208930  0.854465  0.873210  
  0.708930  0.354465  0.873210  
  0.708930  0.854465  0.873210  
  0.128810  0.064405  0.613570  
  0.128810  0.564405  0.613570  
  0.628810  0.064405  0.613570  
  0.628810  0.564405  0.613570  
  0.371190  0.435595  0.386430  
  0.371190  0.935595  0.386430  
  0.871190  0.435595  0.386430  
  0.871190  0.935595  0.386430  
  