CuI
1.0
        4.2986297607         0.0000000000         0.0000000000
       -2.1493148804         3.7227225743         0.0000000000
        2.1493147982         1.2409074773         7.1570669857
   Cu    I
   2    2
Direct
     0.750800014         0.875400007         0.373800009
     0.249199986         0.124599993         0.626200020
     0.000000000         0.000000000         0.000000000
     0.000000000         0.500000000         0.500000000
