C4_A_constant  0.39685 3.451
1
  3.451000  0.000000  0.000000
  0.000000  3.451000  0.000000
  0.000000  0.000000  15.000000
C 
  4 
Direct
  0.198425  0.500000  0.000000  C s I
  0.500000  0.198425  0.000000  
  0.801575  0.500000  0.000000  
  0.500000  0.801575  0.000000  
  