generated by phonopy
   1.0
     2.1300    1.2298   0.0000000000000000
     2.1300    -1.2298    0.0000000000000000
     0.0000000000000000    0.0000000000000000   10.0000000000000000
C
   2
Direct
  0.0  0.0  0.0000000000000000 C p z 
  0.3333333333333334  0.3333333333333334  0.0000000000000000 C p z

