K-Path Generated by VASPKIT.
   60
Line-Mode
Reciprocal
  -0.2500000000   0.0000000000    0     M         
   0.0000000000   0.0000000000    0     G             