K-Path Generated by VASPKIT.
   40
Line-Mode
Reciprocal
   0.0      0.5    0 M1
   0.3333333333   0.3333333333   0.0000000000     K1        

   0.3333333333   0.3333333333   0.0000000000     K1                 
   0.6666666667   -0.3333333333   0.0000000000     K2                 
 
   0.6666666667   -0.3333333333   0.0000000000     K2                 
   0.3333333333   -0.6666666667   0.0000000000     K3 

   0.3333333333   -0.6666666667   0.0000000000     K3                 
   -0.3333333333   -0.3333333333  0.0000000000     K4

  -0.3333333333   -0.3333333333   0.0000000000     K4                 
   -0.6666666667   0.3333333333   0.0000000000     K5 

   -0.6666666667   0.3333333333   0.0000000000     K5                 
  -0.3333333333   0.6666666667    0.0000000000     K6 

   -0.3333333333   0.6666666667    0.0000000000     K6                 
   0.0      0.5    0       M1