K-Path Generated by VASPKIT.
   30
Line-Mode
Reciprocal
   0.0000000000   0.0000000000   0.0000000000     G        
   0.5000000000   0.0000000000   0.0000000000     X              
 
   0.5000000000   0.0000000000   0.0000000000     X              
   0.5   0.5   0.0000000000     M              
 
   0.5   0.5   0.0000000000     M                      
   0.0000000000   0.0000000000   0.0000000000     G         
 
