POSCAR Gen by MATLAB
1
  1  0  0.000000
  0   1  0.000000
  0.000000  0.000000  10.000000
C 
  2 
Direct
 0.0 0.0 0 C p z
 0.5 0.5  0 C p z
