POSCAR Gen by MATLAB
1
  1  0  0.000000
 -0.5   0.866025403784439  0.000000
  0.000000  0.000000  10.000000
C 
  2 
Direct
 0.333333333 0.666666667 0 C p z
 0.666666667 0.33333333  0 C p z
