graphene
1.0
        1         0.0000000000         0.0000000000
        0.0000000000         1         0.0000000000
        0.0000000000         0.0000000000        20.0000000000
    C
    4
Direct
     0.3         0.7         0.50000000 C p z
     0.7         0.3         0.50000000 C p z
     0.3         0.3         0.50000000 Si p z
     0.7         0.7         0.50000000 Si p z
