POSCAR Gen by vasplib
1
  59.120002  0.000000  0.000000
  -29.560001  51.199423  0.000000
  0.000000  0.000000  20.000000
C 
  800 
Direct
  0.098421  0.112269  0.250000  
  0.098421  0.153811  0.250000  
  0.098421  0.195354  0.250000  
  0.098421  0.236897  0.250000  
  0.098421  0.278439  0.250000  
  0.098421  0.319982  0.250000  
  0.098421  0.361525  0.250000  
  0.098421  0.403067  0.250000  
  0.098421  0.444610  0.250000  
  0.098421  0.486152  0.250000  
  0.098421  0.527695  0.250000  
  0.098421  0.569238  0.250000  
  0.098421  0.610780  0.250000  
  0.098421  0.652323  0.250000  
  0.098421  0.693866  0.250000  
  0.098421  0.735408  0.250000  
  0.098421  0.776951  0.250000  
  0.098421  0.818493  0.250000  
  0.098421  0.860036  0.250000  
  0.098421  0.901579  0.250000  
  0.139964  0.112269  0.250000  
  0.139964  0.153811  0.250000  
  0.139964  0.195354  0.250000  
  0.139964  0.236897  0.250000  
  0.139964  0.278439  0.250000  
  0.139964  0.319982  0.250000  
  0.139964  0.361525  0.250000  
  0.139964  0.403067  0.250000  
  0.139964  0.444610  0.250000  
  0.139964  0.486152  0.250000  
  0.139964  0.527695  0.250000  
  0.139964  0.569238  0.250000  
  0.139964  0.610780  0.250000  
  0.139964  0.652323  0.250000  
  0.139964  0.693866  0.250000  
  0.139964  0.735408  0.250000  
  0.139964  0.776951  0.250000  
  0.139964  0.818493  0.250000  
  0.139964  0.860036  0.250000  
  0.139964  0.901579  0.250000  
  0.181507  0.112269  0.250000  
  0.181507  0.153811  0.250000  
  0.181507  0.195354  0.250000  
  0.181507  0.236897  0.250000  
  0.181507  0.278439  0.250000  
  0.181507  0.319982  0.250000  
  0.181507  0.361525  0.250000  
  0.181507  0.403067  0.250000  
  0.181507  0.444610  0.250000  
  0.181507  0.486152  0.250000  
  0.181507  0.527695  0.250000  
  0.181507  0.569238  0.250000  
  0.181507  0.610780  0.250000  
  0.181507  0.652323  0.250000  
  0.181507  0.693866  0.250000  
  0.181507  0.735408  0.250000  
  0.181507  0.776951  0.250000  
  0.181507  0.818493  0.250000  
  0.181507  0.860036  0.250000  
  0.181507  0.901579  0.250000  
  0.223049  0.112269  0.250000  
  0.223049  0.153811  0.250000  
  0.223049  0.195354  0.250000  
  0.223049  0.236897  0.250000  
  0.223049  0.278439  0.250000  
  0.223049  0.319982  0.250000  
  0.223049  0.361525  0.250000  
  0.223049  0.403067  0.250000  
  0.223049  0.444610  0.250000  
  0.223049  0.486152  0.250000  
  0.223049  0.527695  0.250000  
  0.223049  0.569238  0.250000  
  0.223049  0.610780  0.250000  
  0.223049  0.652323  0.250000  
  0.223049  0.693866  0.250000  
  0.223049  0.735408  0.250000  
  0.223049  0.776951  0.250000  
  0.223049  0.818493  0.250000  
  0.223049  0.860036  0.250000  
  0.223049  0.901579  0.250000  
  0.264592  0.112269  0.250000  
  0.264592  0.153811  0.250000  
  0.264592  0.195354  0.250000  
  0.264592  0.236897  0.250000  
  0.264592  0.278439  0.250000  
  0.264592  0.319982  0.250000  
  0.264592  0.361525  0.250000  
  0.264592  0.403067  0.250000  
  0.264592  0.444610  0.250000  
  0.264592  0.486152  0.250000  
  0.264592  0.527695  0.250000  
  0.264592  0.569238  0.250000  
  0.264592  0.610780  0.250000  
  0.264592  0.652323  0.250000  
  0.264592  0.693866  0.250000  
  0.264592  0.735408  0.250000  
  0.264592  0.776951  0.250000  
  0.264592  0.818493  0.250000  
  0.264592  0.860036  0.250000  
  0.264592  0.901579  0.250000  
  0.306134  0.112269  0.250000  
  0.306134  0.153811  0.250000  
  0.306134  0.195354  0.250000  
  0.306134  0.236897  0.250000  
  0.306134  0.278439  0.250000  
  0.306134  0.319982  0.250000  
  0.306134  0.361525  0.250000  
  0.306134  0.403067  0.250000  
  0.306134  0.444610  0.250000  
  0.306134  0.486152  0.250000  
  0.306134  0.527695  0.250000  
  0.306134  0.569238  0.250000  
  0.306134  0.610780  0.250000  
  0.306134  0.652323  0.250000  
  0.306134  0.693866  0.250000  
  0.306134  0.735408  0.250000  
  0.306134  0.776951  0.250000  
  0.306134  0.818493  0.250000  
  0.306134  0.860036  0.250000  
  0.306134  0.901579  0.250000  
  0.347677  0.112269  0.250000  
  0.347677  0.153811  0.250000  
  0.347677  0.195354  0.250000  
  0.347677  0.236897  0.250000  
  0.347677  0.278439  0.250000  
  0.347677  0.319982  0.250000  
  0.347677  0.361525  0.250000  
  0.347677  0.403067  0.250000  
  0.347677  0.444610  0.250000  
  0.347677  0.486152  0.250000  
  0.347677  0.527695  0.250000  
  0.347677  0.569238  0.250000  
  0.347677  0.610780  0.250000  
  0.347677  0.652323  0.250000  
  0.347677  0.693866  0.250000  
  0.347677  0.735408  0.250000  
  0.347677  0.776951  0.250000  
  0.347677  0.818493  0.250000  
  0.347677  0.860036  0.250000  
  0.347677  0.901579  0.250000  
  0.389220  0.112269  0.250000  
  0.389220  0.153811  0.250000  
  0.389220  0.195354  0.250000  
  0.389220  0.236897  0.250000  
  0.389220  0.278439  0.250000  
  0.389220  0.319982  0.250000  
  0.389220  0.361525  0.250000  
  0.389220  0.403067  0.250000  
  0.389220  0.444610  0.250000  
  0.389220  0.486152  0.250000  
  0.389220  0.527695  0.250000  
  0.389220  0.569238  0.250000  
  0.389220  0.610780  0.250000  
  0.389220  0.652323  0.250000  
  0.389220  0.693866  0.250000  
  0.389220  0.735408  0.250000  
  0.389220  0.776951  0.250000  
  0.389220  0.818493  0.250000  
  0.389220  0.860036  0.250000  
  0.389220  0.901579  0.250000  
  0.430762  0.112269  0.250000  
  0.430762  0.153811  0.250000  
  0.430762  0.195354  0.250000  
  0.430762  0.236897  0.250000  
  0.430762  0.278439  0.250000  
  0.430762  0.319982  0.250000  
  0.430762  0.361525  0.250000  
  0.430762  0.403067  0.250000  
  0.430762  0.444610  0.250000  
  0.430762  0.486152  0.250000  
  0.430762  0.527695  0.250000  
  0.430762  0.569238  0.250000  
  0.430762  0.610780  0.250000  
  0.430762  0.652323  0.250000  
  0.430762  0.693866  0.250000  
  0.430762  0.735408  0.250000  
  0.430762  0.776951  0.250000  
  0.430762  0.818493  0.250000  
  0.430762  0.860036  0.250000  
  0.430762  0.901579  0.250000  
  0.472305  0.112269  0.250000  
  0.472305  0.153811  0.250000  
  0.472305  0.195354  0.250000  
  0.472305  0.236897  0.250000  
  0.472305  0.278439  0.250000  
  0.472305  0.319982  0.250000  
  0.472305  0.361525  0.250000  
  0.472305  0.403067  0.250000  
  0.472305  0.444610  0.250000  
  0.472305  0.486152  0.250000  
  0.472305  0.527695  0.250000  
  0.472305  0.569238  0.250000  
  0.472305  0.610780  0.250000  
  0.472305  0.652323  0.250000  
  0.472305  0.693866  0.250000  
  0.472305  0.735408  0.250000  
  0.472305  0.776951  0.250000  
  0.472305  0.818493  0.250000  
  0.472305  0.860036  0.250000  
  0.472305  0.901579  0.250000  
  0.513848  0.112269  0.250000  
  0.513848  0.153811  0.250000  
  0.513848  0.195354  0.250000  
  0.513848  0.236897  0.250000  
  0.513848  0.278439  0.250000  
  0.513848  0.319982  0.250000  
  0.513848  0.361525  0.250000  
  0.513848  0.403067  0.250000  
  0.513848  0.444610  0.250000  
  0.513848  0.486152  0.250000  
  0.513848  0.527695  0.250000  
  0.513848  0.569238  0.250000  
  0.513848  0.610780  0.250000  
  0.513848  0.652323  0.250000  
  0.513848  0.693866  0.250000  
  0.513848  0.735408  0.250000  
  0.513848  0.776951  0.250000  
  0.513848  0.818493  0.250000  
  0.513848  0.860036  0.250000  
  0.513848  0.901579  0.250000  
  0.555390  0.112269  0.250000  
  0.555390  0.153811  0.250000  
  0.555390  0.195354  0.250000  
  0.555390  0.236897  0.250000  
  0.555390  0.278439  0.250000  
  0.555390  0.319982  0.250000  
  0.555390  0.361525  0.250000  
  0.555390  0.403067  0.250000  
  0.555390  0.444610  0.250000  
  0.555390  0.486152  0.250000  
  0.555390  0.527695  0.250000  
  0.555390  0.569238  0.250000  
  0.555390  0.610780  0.250000  
  0.555390  0.652323  0.250000  
  0.555390  0.693866  0.250000  
  0.555390  0.735408  0.250000  
  0.555390  0.776951  0.250000  
  0.555390  0.818493  0.250000  
  0.555390  0.860036  0.250000  
  0.555390  0.901579  0.250000  
  0.596933  0.112269  0.250000  
  0.596933  0.153811  0.250000  
  0.596933  0.195354  0.250000  
  0.596933  0.236897  0.250000  
  0.596933  0.278439  0.250000  
  0.596933  0.319982  0.250000  
  0.596933  0.361525  0.250000  
  0.596933  0.403067  0.250000  
  0.596933  0.444610  0.250000  
  0.596933  0.486152  0.250000  
  0.596933  0.527695  0.250000  
  0.596933  0.569238  0.250000  
  0.596933  0.610780  0.250000  
  0.596933  0.652323  0.250000  
  0.596933  0.693866  0.250000  
  0.596933  0.735408  0.250000  
  0.596933  0.776951  0.250000  
  0.596933  0.818493  0.250000  
  0.596933  0.860036  0.250000  
  0.596933  0.901579  0.250000  
  0.638475  0.112269  0.250000  
  0.638475  0.153811  0.250000  
  0.638475  0.195354  0.250000  
  0.638475  0.236897  0.250000  
  0.638475  0.278439  0.250000  
  0.638475  0.319982  0.250000  
  0.638475  0.361525  0.250000  
  0.638475  0.403067  0.250000  
  0.638475  0.444610  0.250000  
  0.638475  0.486152  0.250000  
  0.638475  0.527695  0.250000  
  0.638475  0.569238  0.250000  
  0.638475  0.610780  0.250000  
  0.638475  0.652323  0.250000  
  0.638475  0.693866  0.250000  
  0.638475  0.735408  0.250000  
  0.638475  0.776951  0.250000  
  0.638475  0.818493  0.250000  
  0.638475  0.860036  0.250000  
  0.638475  0.901579  0.250000  
  0.680018  0.112269  0.250000  
  0.680018  0.153811  0.250000  
  0.680018  0.195354  0.250000  
  0.680018  0.236897  0.250000  
  0.680018  0.278439  0.250000  
  0.680018  0.319982  0.250000  
  0.680018  0.361525  0.250000  
  0.680018  0.403067  0.250000  
  0.680018  0.444610  0.250000  
  0.680018  0.486152  0.250000  
  0.680018  0.527695  0.250000  
  0.680018  0.569238  0.250000  
  0.680018  0.610780  0.250000  
  0.680018  0.652323  0.250000  
  0.680018  0.693866  0.250000  
  0.680018  0.735408  0.250000  
  0.680018  0.776951  0.250000  
  0.680018  0.818493  0.250000  
  0.680018  0.860036  0.250000  
  0.680018  0.901579  0.250000  
  0.721561  0.112269  0.250000  
  0.721561  0.153811  0.250000  
  0.721561  0.195354  0.250000  
  0.721561  0.236897  0.250000  
  0.721561  0.278439  0.250000  
  0.721561  0.319982  0.250000  
  0.721561  0.361525  0.250000  
  0.721561  0.403067  0.250000  
  0.721561  0.444610  0.250000  
  0.721561  0.486152  0.250000  
  0.721561  0.527695  0.250000  
  0.721561  0.569238  0.250000  
  0.721561  0.610780  0.250000  
  0.721561  0.652323  0.250000  
  0.721561  0.693866  0.250000  
  0.721561  0.735408  0.250000  
  0.721561  0.776951  0.250000  
  0.721561  0.818493  0.250000  
  0.721561  0.860036  0.250000  
  0.721561  0.901579  0.250000  
  0.763103  0.112269  0.250000  
  0.763103  0.153811  0.250000  
  0.763103  0.195354  0.250000  
  0.763103  0.236897  0.250000  
  0.763103  0.278439  0.250000  
  0.763103  0.319982  0.250000  
  0.763103  0.361525  0.250000  
  0.763103  0.403067  0.250000  
  0.763103  0.444610  0.250000  
  0.763103  0.486152  0.250000  
  0.763103  0.527695  0.250000  
  0.763103  0.569238  0.250000  
  0.763103  0.610780  0.250000  
  0.763103  0.652323  0.250000  
  0.763103  0.693866  0.250000  
  0.763103  0.735408  0.250000  
  0.763103  0.776951  0.250000  
  0.763103  0.818493  0.250000  
  0.763103  0.860036  0.250000  
  0.763103  0.901579  0.250000  
  0.804646  0.112269  0.250000  
  0.804646  0.153811  0.250000  
  0.804646  0.195354  0.250000  
  0.804646  0.236897  0.250000  
  0.804646  0.278439  0.250000  
  0.804646  0.319982  0.250000  
  0.804646  0.361525  0.250000  
  0.804646  0.403067  0.250000  
  0.804646  0.444610  0.250000  
  0.804646  0.486152  0.250000  
  0.804646  0.527695  0.250000  
  0.804646  0.569238  0.250000  
  0.804646  0.610780  0.250000  
  0.804646  0.652323  0.250000  
  0.804646  0.693866  0.250000  
  0.804646  0.735408  0.250000  
  0.804646  0.776951  0.250000  
  0.804646  0.818493  0.250000  
  0.804646  0.860036  0.250000  
  0.804646  0.901579  0.250000  
  0.846189  0.112269  0.250000  
  0.846189  0.153811  0.250000  
  0.846189  0.195354  0.250000  
  0.846189  0.236897  0.250000  
  0.846189  0.278439  0.250000  
  0.846189  0.319982  0.250000  
  0.846189  0.361525  0.250000  
  0.846189  0.403067  0.250000  
  0.846189  0.444610  0.250000  
  0.846189  0.486152  0.250000  
  0.846189  0.527695  0.250000  
  0.846189  0.569238  0.250000  
  0.846189  0.610780  0.250000  
  0.846189  0.652323  0.250000  
  0.846189  0.693866  0.250000  
  0.846189  0.735408  0.250000  
  0.846189  0.776951  0.250000  
  0.846189  0.818493  0.250000  
  0.846189  0.860036  0.250000  
  0.846189  0.901579  0.250000  
  0.887731  0.112269  0.250000  
  0.887731  0.153811  0.250000  
  0.887731  0.195354  0.250000  
  0.887731  0.236897  0.250000  
  0.887731  0.278439  0.250000  
  0.887731  0.319982  0.250000  
  0.887731  0.361525  0.250000  
  0.887731  0.403067  0.250000  
  0.887731  0.444610  0.250000  
  0.887731  0.486152  0.250000  
  0.887731  0.527695  0.250000  
  0.887731  0.569238  0.250000  
  0.887731  0.610780  0.250000  
  0.887731  0.652323  0.250000  
  0.887731  0.693866  0.250000  
  0.887731  0.735408  0.250000  
  0.887731  0.776951  0.250000  
  0.887731  0.818493  0.250000  
  0.887731  0.860036  0.250000  
  0.887731  0.901579  0.250000  
  0.112269  0.098421  0.250000  
  0.112269  0.139964  0.250000  
  0.112269  0.181507  0.250000  
  0.112269  0.223049  0.250000  
  0.112269  0.264592  0.250000  
  0.112269  0.306134  0.250000  
  0.112269  0.347677  0.250000  
  0.112269  0.389220  0.250000  
  0.112269  0.430762  0.250000  
  0.112269  0.472305  0.250000  
  0.112269  0.513848  0.250000  
  0.112269  0.555390  0.250000  
  0.112269  0.596933  0.250000  
  0.112269  0.638475  0.250000  
  0.112269  0.680018  0.250000  
  0.112269  0.721561  0.250000  
  0.112269  0.763103  0.250000  
  0.112269  0.804646  0.250000  
  0.112269  0.846189  0.250000  
  0.112269  0.887731  0.250000  
  0.153811  0.098421  0.250000  
  0.153811  0.139964  0.250000  
  0.153811  0.181507  0.250000  
  0.153811  0.223049  0.250000  
  0.153811  0.264592  0.250000  
  0.153811  0.306134  0.250000  
  0.153811  0.347677  0.250000  
  0.153811  0.389220  0.250000  
  0.153811  0.430762  0.250000  
  0.153811  0.472305  0.250000  
  0.153811  0.513848  0.250000  
  0.153811  0.555390  0.250000  
  0.153811  0.596933  0.250000  
  0.153811  0.638475  0.250000  
  0.153811  0.680018  0.250000  
  0.153811  0.721561  0.250000  
  0.153811  0.763103  0.250000  
  0.153811  0.804646  0.250000  
  0.153811  0.846189  0.250000  
  0.153811  0.887731  0.250000  
  0.195354  0.098421  0.250000  
  0.195354  0.139964  0.250000  
  0.195354  0.181507  0.250000  
  0.195354  0.223049  0.250000  
  0.195354  0.264592  0.250000  
  0.195354  0.306134  0.250000  
  0.195354  0.347677  0.250000  
  0.195354  0.389220  0.250000  
  0.195354  0.430762  0.250000  
  0.195354  0.472305  0.250000  
  0.195354  0.513848  0.250000  
  0.195354  0.555390  0.250000  
  0.195354  0.596933  0.250000  
  0.195354  0.638475  0.250000  
  0.195354  0.680018  0.250000  
  0.195354  0.721561  0.250000  
  0.195354  0.763103  0.250000  
  0.195354  0.804646  0.250000  
  0.195354  0.846189  0.250000  
  0.195354  0.887731  0.250000  
  0.236897  0.098421  0.250000  
  0.236897  0.139964  0.250000  
  0.236897  0.181507  0.250000  
  0.236897  0.223049  0.250000  
  0.236897  0.264592  0.250000  
  0.236897  0.306134  0.250000  
  0.236897  0.347677  0.250000  
  0.236897  0.389220  0.250000  
  0.236897  0.430762  0.250000  
  0.236897  0.472305  0.250000  
  0.236897  0.513848  0.250000  
  0.236897  0.555390  0.250000  
  0.236897  0.596933  0.250000  
  0.236897  0.638475  0.250000  
  0.236897  0.680018  0.250000  
  0.236897  0.721561  0.250000  
  0.236897  0.763103  0.250000  
  0.236897  0.804646  0.250000  
  0.236897  0.846189  0.250000  
  0.236897  0.887731  0.250000  
  0.278439  0.098421  0.250000  
  0.278439  0.139964  0.250000  
  0.278439  0.181507  0.250000  
  0.278439  0.223049  0.250000  
  0.278439  0.264592  0.250000  
  0.278439  0.306134  0.250000  
  0.278439  0.347677  0.250000  
  0.278439  0.389220  0.250000  
  0.278439  0.430762  0.250000  
  0.278439  0.472305  0.250000  
  0.278439  0.513848  0.250000  
  0.278439  0.555390  0.250000  
  0.278439  0.596933  0.250000  
  0.278439  0.638475  0.250000  
  0.278439  0.680018  0.250000  
  0.278439  0.721561  0.250000  
  0.278439  0.763103  0.250000  
  0.278439  0.804646  0.250000  
  0.278439  0.846189  0.250000  
  0.278439  0.887731  0.250000  
  0.319982  0.098421  0.250000  
  0.319982  0.139964  0.250000  
  0.319982  0.181507  0.250000  
  0.319982  0.223049  0.250000  
  0.319982  0.264592  0.250000  
  0.319982  0.306134  0.250000  
  0.319982  0.347677  0.250000  
  0.319982  0.389220  0.250000  
  0.319982  0.430762  0.250000  
  0.319982  0.472305  0.250000  
  0.319982  0.513848  0.250000  
  0.319982  0.555390  0.250000  
  0.319982  0.596933  0.250000  
  0.319982  0.638475  0.250000  
  0.319982  0.680018  0.250000  
  0.319982  0.721561  0.250000  
  0.319982  0.763103  0.250000  
  0.319982  0.804646  0.250000  
  0.319982  0.846189  0.250000  
  0.319982  0.887731  0.250000  
  0.361525  0.098421  0.250000  
  0.361525  0.139964  0.250000  
  0.361525  0.181507  0.250000  
  0.361525  0.223049  0.250000  
  0.361525  0.264592  0.250000  
  0.361525  0.306134  0.250000  
  0.361525  0.347677  0.250000  
  0.361525  0.389220  0.250000  
  0.361525  0.430762  0.250000  
  0.361525  0.472305  0.250000  
  0.361525  0.513848  0.250000  
  0.361525  0.555390  0.250000  
  0.361525  0.596933  0.250000  
  0.361525  0.638475  0.250000  
  0.361525  0.680018  0.250000  
  0.361525  0.721561  0.250000  
  0.361525  0.763103  0.250000  
  0.361525  0.804646  0.250000  
  0.361525  0.846189  0.250000  
  0.361525  0.887731  0.250000  
  0.403067  0.098421  0.250000  
  0.403067  0.139964  0.250000  
  0.403067  0.181507  0.250000  
  0.403067  0.223049  0.250000  
  0.403067  0.264592  0.250000  
  0.403067  0.306134  0.250000  
  0.403067  0.347677  0.250000  
  0.403067  0.389220  0.250000  
  0.403067  0.430762  0.250000  
  0.403067  0.472305  0.250000  
  0.403067  0.513848  0.250000  
  0.403067  0.555390  0.250000  
  0.403067  0.596933  0.250000  
  0.403067  0.638475  0.250000  
  0.403067  0.680018  0.250000  
  0.403067  0.721561  0.250000  
  0.403067  0.763103  0.250000  
  0.403067  0.804646  0.250000  
  0.403067  0.846189  0.250000  
  0.403067  0.887731  0.250000  
  0.444610  0.098421  0.250000  
  0.444610  0.139964  0.250000  
  0.444610  0.181507  0.250000  
  0.444610  0.223049  0.250000  
  0.444610  0.264592  0.250000  
  0.444610  0.306134  0.250000  
  0.444610  0.347677  0.250000  
  0.444610  0.389220  0.250000  
  0.444610  0.430762  0.250000  
  0.444610  0.472305  0.250000  
  0.444610  0.513848  0.250000  
  0.444610  0.555390  0.250000  
  0.444610  0.596933  0.250000  
  0.444610  0.638475  0.250000  
  0.444610  0.680018  0.250000  
  0.444610  0.721561  0.250000  
  0.444610  0.763103  0.250000  
  0.444610  0.804646  0.250000  
  0.444610  0.846189  0.250000  
  0.444610  0.887731  0.250000  
  0.486152  0.098421  0.250000  
  0.486152  0.139964  0.250000  
  0.486152  0.181507  0.250000  
  0.486152  0.223049  0.250000  
  0.486152  0.264592  0.250000  
  0.486152  0.306134  0.250000  
  0.486152  0.347677  0.250000  
  0.486152  0.389220  0.250000  
  0.486152  0.430762  0.250000  
  0.486152  0.472305  0.250000  
  0.486152  0.513848  0.250000  
  0.486152  0.555390  0.250000  
  0.486152  0.596933  0.250000  
  0.486152  0.638475  0.250000  
  0.486152  0.680018  0.250000  
  0.486152  0.721561  0.250000  
  0.486152  0.763103  0.250000  
  0.486152  0.804646  0.250000  
  0.486152  0.846189  0.250000  
  0.486152  0.887731  0.250000  
  0.527695  0.098421  0.250000  
  0.527695  0.139964  0.250000  
  0.527695  0.181507  0.250000  
  0.527695  0.223049  0.250000  
  0.527695  0.264592  0.250000  
  0.527695  0.306134  0.250000  
  0.527695  0.347677  0.250000  
  0.527695  0.389220  0.250000  
  0.527695  0.430762  0.250000  
  0.527695  0.472305  0.250000  
  0.527695  0.513848  0.250000  
  0.527695  0.555390  0.250000  
  0.527695  0.596933  0.250000  
  0.527695  0.638475  0.250000  
  0.527695  0.680018  0.250000  
  0.527695  0.721561  0.250000  
  0.527695  0.763103  0.250000  
  0.527695  0.804646  0.250000  
  0.527695  0.846189  0.250000  
  0.527695  0.887731  0.250000  
  0.569238  0.098421  0.250000  
  0.569238  0.139964  0.250000  
  0.569238  0.181507  0.250000  
  0.569238  0.223049  0.250000  
  0.569238  0.264592  0.250000  
  0.569238  0.306134  0.250000  
  0.569238  0.347677  0.250000  
  0.569238  0.389220  0.250000  
  0.569238  0.430762  0.250000  
  0.569238  0.472305  0.250000  
  0.569238  0.513848  0.250000  
  0.569238  0.555390  0.250000  
  0.569238  0.596933  0.250000  
  0.569238  0.638475  0.250000  
  0.569238  0.680018  0.250000  
  0.569238  0.721561  0.250000  
  0.569238  0.763103  0.250000  
  0.569238  0.804646  0.250000  
  0.569238  0.846189  0.250000  
  0.569238  0.887731  0.250000  
  0.610780  0.098421  0.250000  
  0.610780  0.139964  0.250000  
  0.610780  0.181507  0.250000  
  0.610780  0.223049  0.250000  
  0.610780  0.264592  0.250000  
  0.610780  0.306134  0.250000  
  0.610780  0.347677  0.250000  
  0.610780  0.389220  0.250000  
  0.610780  0.430762  0.250000  
  0.610780  0.472305  0.250000  
  0.610780  0.513848  0.250000  
  0.610780  0.555390  0.250000  
  0.610780  0.596933  0.250000  
  0.610780  0.638475  0.250000  
  0.610780  0.680018  0.250000  
  0.610780  0.721561  0.250000  
  0.610780  0.763103  0.250000  
  0.610780  0.804646  0.250000  
  0.610780  0.846189  0.250000  
  0.610780  0.887731  0.250000  
  0.652323  0.098421  0.250000  
  0.652323  0.139964  0.250000  
  0.652323  0.181507  0.250000  
  0.652323  0.223049  0.250000  
  0.652323  0.264592  0.250000  
  0.652323  0.306134  0.250000  
  0.652323  0.347677  0.250000  
  0.652323  0.389220  0.250000  
  0.652323  0.430762  0.250000  
  0.652323  0.472305  0.250000  
  0.652323  0.513848  0.250000  
  0.652323  0.555390  0.250000  
  0.652323  0.596933  0.250000  
  0.652323  0.638475  0.250000  
  0.652323  0.680018  0.250000  
  0.652323  0.721561  0.250000  
  0.652323  0.763103  0.250000  
  0.652323  0.804646  0.250000  
  0.652323  0.846189  0.250000  
  0.652323  0.887731  0.250000  
  0.693866  0.098421  0.250000  
  0.693866  0.139964  0.250000  
  0.693866  0.181507  0.250000  
  0.693866  0.223049  0.250000  
  0.693866  0.264592  0.250000  
  0.693866  0.306134  0.250000  
  0.693866  0.347677  0.250000  
  0.693866  0.389220  0.250000  
  0.693866  0.430762  0.250000  
  0.693866  0.472305  0.250000  
  0.693866  0.513848  0.250000  
  0.693866  0.555390  0.250000  
  0.693866  0.596933  0.250000  
  0.693866  0.638475  0.250000  
  0.693866  0.680018  0.250000  
  0.693866  0.721561  0.250000  
  0.693866  0.763103  0.250000  
  0.693866  0.804646  0.250000  
  0.693866  0.846189  0.250000  
  0.693866  0.887731  0.250000  
  0.735408  0.098421  0.250000  
  0.735408  0.139964  0.250000  
  0.735408  0.181507  0.250000  
  0.735408  0.223049  0.250000  
  0.735408  0.264592  0.250000  
  0.735408  0.306134  0.250000  
  0.735408  0.347677  0.250000  
  0.735408  0.389220  0.250000  
  0.735408  0.430762  0.250000  
  0.735408  0.472305  0.250000  
  0.735408  0.513848  0.250000  
  0.735408  0.555390  0.250000  
  0.735408  0.596933  0.250000  
  0.735408  0.638475  0.250000  
  0.735408  0.680018  0.250000  
  0.735408  0.721561  0.250000  
  0.735408  0.763103  0.250000  
  0.735408  0.804646  0.250000  
  0.735408  0.846189  0.250000  
  0.735408  0.887731  0.250000  
  0.776951  0.098421  0.250000  
  0.776951  0.139964  0.250000  
  0.776951  0.181507  0.250000  
  0.776951  0.223049  0.250000  
  0.776951  0.264592  0.250000  
  0.776951  0.306134  0.250000  
  0.776951  0.347677  0.250000  
  0.776951  0.389220  0.250000  
  0.776951  0.430762  0.250000  
  0.776951  0.472305  0.250000  
  0.776951  0.513848  0.250000  
  0.776951  0.555390  0.250000  
  0.776951  0.596933  0.250000  
  0.776951  0.638475  0.250000  
  0.776951  0.680018  0.250000  
  0.776951  0.721561  0.250000  
  0.776951  0.763103  0.250000  
  0.776951  0.804646  0.250000  
  0.776951  0.846189  0.250000  
  0.776951  0.887731  0.250000  
  0.818493  0.098421  0.250000  
  0.818493  0.139964  0.250000  
  0.818493  0.181507  0.250000  
  0.818493  0.223049  0.250000  
  0.818493  0.264592  0.250000  
  0.818493  0.306134  0.250000  
  0.818493  0.347677  0.250000  
  0.818493  0.389220  0.250000  
  0.818493  0.430762  0.250000  
  0.818493  0.472305  0.250000  
  0.818493  0.513848  0.250000  
  0.818493  0.555390  0.250000  
  0.818493  0.596933  0.250000  
  0.818493  0.638475  0.250000  
  0.818493  0.680018  0.250000  
  0.818493  0.721561  0.250000  
  0.818493  0.763103  0.250000  
  0.818493  0.804646  0.250000  
  0.818493  0.846189  0.250000  
  0.818493  0.887731  0.250000  
  0.860036  0.098421  0.250000  
  0.860036  0.139964  0.250000  
  0.860036  0.181507  0.250000  
  0.860036  0.223049  0.250000  
  0.860036  0.264592  0.250000  
  0.860036  0.306134  0.250000  
  0.860036  0.347677  0.250000  
  0.860036  0.389220  0.250000  
  0.860036  0.430762  0.250000  
  0.860036  0.472305  0.250000  
  0.860036  0.513848  0.250000  
  0.860036  0.555390  0.250000  
  0.860036  0.596933  0.250000  
  0.860036  0.638475  0.250000  
  0.860036  0.680018  0.250000  
  0.860036  0.721561  0.250000  
  0.860036  0.763103  0.250000  
  0.860036  0.804646  0.250000  
  0.860036  0.846189  0.250000  
  0.860036  0.887731  0.250000  
  0.901579  0.098421  0.250000  
  0.901579  0.139964  0.250000  
  0.901579  0.181507  0.250000  
  0.901579  0.223049  0.250000  
  0.901579  0.264592  0.250000  
  0.901579  0.306134  0.250000  
  0.901579  0.347677  0.250000  
  0.901579  0.389220  0.250000  
  0.901579  0.430762  0.250000  
  0.901579  0.472305  0.250000  
  0.901579  0.513848  0.250000  
  0.901579  0.555390  0.250000  
  0.901579  0.596933  0.250000  
  0.901579  0.638475  0.250000  
  0.901579  0.680018  0.250000  
  0.901579  0.721561  0.250000  
  0.901579  0.763103  0.250000  
  0.901579  0.804646  0.250000  
  0.901579  0.846189  0.250000  
  0.901579  0.887731  0.250000  
  