generated by phonopy
   1.0
     0.0000000000000000    1.7868549235128819    1.7868549235128819
     1.7868549235128819    0.0000000000000000    1.7868549235128819
     1.7868549235128819    1.7868549235128819    0.0000000000000000
C
   8
Direct
  0.2500000000000000  0.2500000000000000  0.2500000000000000 C p x
  0.2500000000000000  0.2500000000000000  0.2500000000000000 C p y
  0.2500000000000000  0.2500000000000000  0.2500000000000000 C p z 
  0.0000000000000000  0.0000000000000000  0.0000000000000000 C p x
  0.0000000000000000  0.0000000000000000  0.0000000000000000 C p y
  0.0000000000000000  0.0000000000000000  0.0000000000000000 C p z
  0.2500000000000000  0.2500000000000000  0.2500000000000000 C s I
  0.0000000000000000  0.0000000000000000  0.0000000000000000 C s I
