K-Path Generated by VASPKIT.
   80
Line-Mode
Reciprocal
   0.000000000   0.000000000   0.2000000000    Z
   0.000000000   0.000000000   0.0000000000    GAMMA      
 
