Primitive Cell
  1.000000
    3.00000    0.00000   0.00000
    0.00000    3.00000   0.00000
    0.00000    0.00000   5.00000
  X
  4
DIRECT
   0.00000 0.00000 0.00000 X s
   0.00000 0.00000 0.00000 X p z
   0.00000 0.00000 0.00000 X s
   0.00000 0.00000 0.00000 X p z