K-Path Generated by VASPKIT.
   100
Line-Mode
Reciprocal
   -0.000000000   -0.5000000000   -0.0000000000     Y
   0.0000000000   0.0000000000   0.0000000000     GAMMA

   0.0000000000   0.0000000000   0.0000000000     GAMMA
   0.0000000000   0.5000000000   0.0000000000     Y

