K-Path Generated by VASPKIT.
   60
Line-Mode
Reciprocal
   0.0000000000   0.0000000000    0     GAMMA          
   0.5000000000   0.0000000000    0     X             
 
   0.5000000000   0.0000000000    0     X              
   0.5000000000   0.5000000000    0     M              
 
   0.5000000000   0.5000000000    0     M              
   0.0000000000   0.0000000000    0     GAMMA   

   0.0000000000   0.0000000000    0     GAMMA  
   0.0000000000   0.5000000000    0     Y  
 
