POSCAR Gen by MATLAB
1.0
        1         0.0000000000         0.0000000000
       0       1        0.0000000000
        0.0000000000         0.0000000000         1
    C
   4
Direct
    0.500000000          0.500000000         0.500000000 C p z  
     0.500000000        0.500000000         0.500000000 C p z
    0.500000000          0.500000000         0.500000000 C p z
0.500000000          0.500000000          0.500000000 C p z

