K-Path Generated by VASPKIT.
   60
Line-Mode
Reciprocal
   0.0000000000   0.0000000000   0.0000000000     GAMMA          
   0.5000000000   0.0000000000   0.0000000000     L              
 
   0.5000000000   0.0000000000   0.0000000000     L              
   0.5000000000  -0.5000000000   0.5000000000     Z              
 
   0.5000000000  -0.5000000000   0.5000000000     Z             
   0.3800521702  -0.3800521702   0.3800521702     Q           
 
   0.3800521702  -0.3800521702   0.3800521702     Q            
   0.0000000000   0.0000000000   0.0000000000     GAMMA          
 
   0.0000000000   0.0000000000   0.0000000000     GAMMA          
   0.5000000000  -0.5000000000   0.0000000000     F              
 
