K-Path Generated by VASPKIT.
   50
Line-Mode
Reciprocal
   0.05    0.05000000000   0.000000000     F
   0.0            0.0            0.0             G

   0.0            0.0            0.0           G
   -0.0500000000    -0.05000000000   0.000000000     F      
