POSCAR Gen by HR class
1
  19.460000  0.000000  0.000000
  -9.730000  16.852854  0.000000
  -4.730000  2.730868  3.090001
C Si 
  81 81 
Direct
  0.362490  0.337958  0.500000  
  0.362490  0.500000  0.500000  
  0.362490  0.662042  0.500000  
  0.524531  0.337958  0.500000  
  0.524531  0.500000  0.500000  
  0.524531  0.662042  0.500000  
  0.686573  0.337958  0.500000  
  0.686573  0.500000  0.500000  
  0.686573  0.662042  0.500000  
  0.337958  0.362490  0.500000  
  0.337958  0.524531  0.500000  
  0.337958  0.686573  0.500000  
  0.500000  0.362490  0.500000  
  0.500000  0.524531  0.500000  
  0.500000  0.686573  0.500000  
  0.662042  0.362490  0.500000  
  0.662042  0.524531  0.500000  
  0.662042  0.686573  0.500000  
  0.313427  0.313427  0.500000  
  0.313427  0.475469  0.500000  
  0.313427  0.637510  0.500000  
  0.475469  0.313427  0.500000  
  0.475469  0.475469  0.500000  
  0.475469  0.637510  0.500000  
  0.637510  0.313427  0.500000  
  0.637510  0.475469  0.500000  
  0.637510  0.637510  0.500000  
  0.289514  0.337958  0.500000  
  0.289514  0.500000  0.500000  
  0.289514  0.662042  0.500000  
  0.451555  0.337958  0.500000  
  0.451555  0.500000  0.500000  
  0.451555  0.662042  0.500000  
  0.613597  0.337958  0.500000  
  0.613597  0.500000  0.500000  
  0.613597  0.662042  0.500000  
  0.337958  0.289514  0.500000  
  0.337958  0.451555  0.500000  
  0.337958  0.613597  0.500000  
  0.500000  0.289514  0.500000  
  0.500000  0.451555  0.500000  
  0.500000  0.613597  0.500000  
  0.662042  0.289514  0.500000  
  0.662042  0.451555  0.500000  
  0.662042  0.613597  0.500000  
  0.386403  0.386403  0.500000  
  0.386403  0.548445  0.500000  
  0.386403  0.710486  0.500000  
  0.548445  0.386403  0.500000  
  0.548445  0.548445  0.500000  
  0.548445  0.710486  0.500000  
  0.710486  0.386403  0.500000  
  0.710486  0.548445  0.500000  
  0.710486  0.710486  0.500000  
  0.407516  0.337958  0.500000  
  0.407516  0.500000  0.500000  
  0.407516  0.662042  0.500000  
  0.569558  0.337958  0.500000  
  0.569558  0.500000  0.500000  
  0.569558  0.662042  0.500000  
  0.731599  0.337958  0.500000  
  0.731599  0.500000  0.500000  
  0.731599  0.662042  0.500000  
  0.337958  0.407516  0.500000  
  0.337958  0.569558  0.500000  
  0.337958  0.731599  0.500000  
  0.500000  0.407516  0.500000  
  0.500000  0.569558  0.500000  
  0.500000  0.731599  0.500000  
  0.662042  0.407516  0.500000  
  0.662042  0.569558  0.500000  
  0.662042  0.731599  0.500000  
  0.268401  0.268401  0.500000  
  0.268401  0.430442  0.500000  
  0.268401  0.592484  0.500000  
  0.430442  0.268401  0.500000  
  0.430442  0.430442  0.500000  
  0.430442  0.592484  0.500000  
  0.592484  0.268401  0.500000  
  0.592484  0.430442  0.500000  
  0.592484  0.592484  0.500000  
  0.313427  0.337958  0.500000  
  0.313427  0.500000  0.500000  
  0.313427  0.662042  0.500000  
  0.475469  0.337958  0.500000  
  0.475469  0.500000  0.500000  
  0.475469  0.662042  0.500000  
  0.637510  0.337958  0.500000  
  0.637510  0.500000  0.500000  
  0.637510  0.662042  0.500000  
  0.337958  0.313427  0.500000  
  0.337958  0.475469  0.500000  
  0.337958  0.637510  0.500000  
  0.500000  0.313427  0.500000  
  0.500000  0.475469  0.500000  
  0.500000  0.637510  0.500000  
  0.662042  0.313427  0.500000  
  0.662042  0.475469  0.500000  
  0.662042  0.637510  0.500000  
  0.362490  0.362490  0.500000  
  0.362490  0.524531  0.500000  
  0.362490  0.686573  0.500000  
  0.524531  0.362490  0.500000  
  0.524531  0.524531  0.500000  
  0.524531  0.686573  0.500000  
  0.686573  0.362490  0.500000  
  0.686573  0.524531  0.500000  
  0.686573  0.686573  0.500000  
  0.386403  0.337958  0.500000  
  0.386403  0.500000  0.500000  
  0.386403  0.662042  0.500000  
  0.548445  0.337958  0.500000  
  0.548445  0.500000  0.500000  
  0.548445  0.662042  0.500000  
  0.710486  0.337958  0.500000  
  0.710486  0.500000  0.500000  
  0.710486  0.662042  0.500000  
  0.337958  0.386403  0.500000  
  0.337958  0.548445  0.500000  
  0.337958  0.710486  0.500000  
  0.500000  0.386403  0.500000  
  0.500000  0.548445  0.500000  
  0.500000  0.710486  0.500000  
  0.662042  0.386403  0.500000  
  0.662042  0.548445  0.500000  
  0.662042  0.710486  0.500000  
  0.289514  0.289514  0.500000  
  0.289514  0.451555  0.500000  
  0.289514  0.613597  0.500000  
  0.451555  0.289514  0.500000  
  0.451555  0.451555  0.500000  
  0.451555  0.613597  0.500000  
  0.613597  0.289514  0.500000  
  0.613597  0.451555  0.500000  
  0.613597  0.613597  0.500000  
  0.337958  0.268401  0.500000  
  0.337958  0.430442  0.500000  
  0.337958  0.592484  0.500000  
  0.500000  0.268401  0.500000  
  0.500000  0.430442  0.500000  
  0.500000  0.592484  0.500000  
  0.662042  0.268401  0.500000  
  0.662042  0.430442  0.500000  
  0.662042  0.592484  0.500000  
  0.407516  0.407516  0.500000  
  0.407516  0.569558  0.500000  
  0.407516  0.731599  0.500000  
  0.569558  0.407516  0.500000  
  0.569558  0.569558  0.500000  
  0.569558  0.731599  0.500000  
  0.731599  0.407516  0.500000  
  0.731599  0.569558  0.500000  
  0.731599  0.731599  0.500000  
  0.268401  0.337958  0.500000  
  0.268401  0.500000  0.500000  
  0.268401  0.662042  0.500000  
  0.430442  0.337958  0.500000  
  0.430442  0.500000  0.500000  
  0.430442  0.662042  0.500000  
  0.592484  0.337958  0.500000  
  0.592484  0.500000  0.500000  
  0.592484  0.662042  0.500000  
  