generated by phonopy
   1.0
     1.6825001117747327    0.9713918924447174    5.5595860000000004
    -1.6825001117747327    0.9713918924447174    5.5595860000000004
     0.0000000000000000   -1.9427837848894347    5.5595860000000004
Tm Na O
   1    1    2
Direct
  0.0000000000000000  0.0000000000000000  0.0000000000000000
  0.4999999999999996  0.5000000000000000  0.5000000000000000
  0.2637880000000000  0.2637880000000000  0.2637880000000000
  0.7362120000000000  0.7362120000000001  0.7362120000000001
