POSCAR Gen by MATLAB
1
  1.682500  0.971392  5.559586
  -1.682500  0.971392  5.559586
  0.000000  -1.942784  5.559586
Na O 
  1 2 
Direct
  0.500000  0.500000  0.500000  
  0.263788  0.263788  0.263788  
  0.736212  0.736212  0.736212  
  