POSCAR Gen by MATLAB
1
  1.682500  0.971392  5.559586
  -1.682500  0.971392  5.559586
  0.000000  -1.942784  5.559586
Tm 
  1 
Direct
  0.000000  0.000000  0.000000  
  