POSCAR Gen by MATLAB
1
  3.365000  0.000000  0.000000
  -1.682500  2.914176  0.000000
  1.682500  0.971392  5.559586
Tm Na O 
  1 1 2 
Direct
  0.000000  0.000000  0.000000  
  0.000000  0.500000  0.500000  
  0.472424  0.736212  0.791364  
  0.527576  0.263788  0.208636  
  