K-Path Generated by VASPKIT.
   60
Line-Mode
Reciprocal
   0.0000000000   0.0000000000   0.0000000000     GAMMA          
   0.5000000000   0.5000000000   0.5000000000     Z              
 
   0.5000000000   0.5000000000   0.5000000000     Z              
   0.5000000000   0.0000000000   0.5000000000     F              
 
   0.5000000000   0.0000000000   0.5000000000     F              
   0.0000000000   0.0000000000   0.0000000000     GAMMA          
 
   0.0000000000   0.0000000000   0.0000000000     GAMMA          
   0.5000000000   0.0000000000   0.0000000000     L              
 
 
