generated by phonopy
   1.0
     2.1493148308068077    1.2409074961395652    7.1570666666666662
    -2.1493148308068077    1.2409074961395652    7.1570666666666662
     0.0000000000000000   -2.4818149922791304    7.1570666666666662
Cu I
   2    2
Direct
  0.1229849999999999  0.1229849999999999  0.1229849999999999
  0.8770150000000001  0.8770150000000001  0.8770150000000001
  0.0000000000000000  0.0000000000000000  0.0000000000000000
  0.4999999999999998  0.4999999999999998  0.5000000000000001
