POSCAR Gen by MATLAB
1
  2.197876  3.806834  0.000000
  -2.197876  3.806834  0.000000
  2.197876  1.268945  7.782592
Rb Yb Se 
  1 1 2 
Direct
  0.000000  0.000000  0.000000  
  0.000000  0.500000  0.500000  
  0.539145  0.230428  0.691283  
  0.460855  0.769572  0.308717  
  