generated by phonopy
   1.0
     0.0000000000000000    2.7347724440651469    2.7347724440651469
     2.7347724440651469    0.0000000000000000    2.7347724440651469
     2.7347724440651469    2.7347724440651469    0.0000000000000000
Si
   2
Direct
  0.7500000000000000  0.7500000000000000  0.7500000000000000 Si spd
  0.5000000000000000  0.5000000000000000  0.5000000000000000

