generated by phonopy
   1.0
     0.0000000000000000    1.7868544131596327    1.7868544131596327
     1.7868544131596327    0.0000000000000000    1.7868544131596327
     1.7868544131596327    1.7868544131596327    0.0000000000000000
C
   2
Direct
  0.7500000000000000  0.7500000000000000  0.7500000000000000
  0.5000000000000000  0.5000000000000000  0.5000000000000000
