generated by phonopy
   1.0
     2.1317591126214128   -1.2370434778080566    0.0000000000000000
     2.1317591126214128    1.2370434778080566    0.0000000000000000
    -0.2603089107513850    0.0000000000000000    3.7290535524500648
C
   2
Direct
  0.1661830000180875  0.1661830000180875  0.9999049999993559
  0.8338169999819125  0.8338169999819125  0.0000950000006441
