generated by phonopy
   1.0
     9.6345023262999998    0.0000000000000000    0.0000000000000000
     0.0000000000000000   13.3224315620000002    0.0000000000000000
     0.0000000000000000    0.0000000000000000    9.1180922506000002
C
 120
Direct
  0.2676579999997089  0.2717959999980968  0.5000000000000000
  0.7323420000002911  0.7282040000019032  0.5000000000000000
  0.2323420000002911  0.7717959999980969  0.0000000000000000
  0.7676579999997089  0.2282040000019031  0.0000000000000000
  0.7590709999920217  0.3027120000002892  0.4123570000021203
  0.2409290000079783  0.6972879999997108  0.4123570000021203
  0.7409290000079783  0.8027120000002893  0.0876429999978797
  0.2590709999920215  0.1972879999997107  0.0876429999978797
  0.2409290000079783  0.6972879999997108  0.5876429999978796
  0.7590709999920217  0.3027120000002892  0.5876429999978796
  0.2590709999920215  0.1972879999997107  0.9123570000021204
  0.7409290000079783  0.8027120000002893  0.9123570000021204
  0.3922949999952403  0.4299449999981915  0.0774119999996218
  0.6077050000047597  0.5700550000018085  0.0774119999996218
  0.1077050000047597  0.9299449999981916  0.4225880000003782
  0.8922949999952403  0.0700550000018084  0.4225880000003782
  0.6077050000047597  0.5700550000018085  0.9225880000003782
  0.3922949999952403  0.4299449999981915  0.9225880000003782
  0.8922949999952403  0.0700550000018084  0.5774119999996219
  0.1077050000047597  0.9299449999981916  0.5774119999996219
  0.4893929999974118  0.2520069999966270  0.4139759999962286
  0.5106070000025882  0.7479930000033730  0.4139759999962286
  0.0106070000025882  0.7520069999966270  0.0860240000037713
  0.9893929999974118  0.2479930000033729  0.0860240000037713
  0.5106070000025882  0.7479930000033730  0.5860240000037713
  0.4893929999974118  0.2520069999966270  0.5860240000037713
  0.9893929999974118  0.2479930000033729  0.9139759999962287
  0.0106070000025882  0.7520069999966270  0.9139759999962287
  0.6025339999974213  0.3666409999982551  0.2246879999996914
  0.3974660000025787  0.6333590000017448  0.2246879999996914
  0.8974660000025787  0.8666409999982552  0.2753120000003086
  0.1025339999974213  0.1333590000017448  0.2753120000003086
  0.3974660000025787  0.6333590000017448  0.7753120000003086
  0.6025339999974213  0.3666409999982551  0.7753120000003086
  0.1025339999974213  0.1333590000017448  0.7246879999996914
  0.8974660000025787  0.8666409999982552  0.7246879999996914
  0.7606119999935964  0.2221189999985078  0.2811730000024175
  0.2393880000064036  0.7778810000014922  0.2811730000024175
  0.7393880000064036  0.7221189999985078  0.2188269999975825
  0.2606119999935963  0.2778810000014921  0.2188269999975825
  0.2393880000064036  0.7778810000014922  0.7188269999975825
  0.7606119999935964  0.2221189999985078  0.7188269999975825
  0.2606119999935963  0.2778810000014921  0.7811730000024175
  0.7393880000064036  0.7221189999985078  0.7811730000024175
  0.3482279999965960  0.2559629999996840  0.3656499999965023
  0.6517720000034040  0.7440370000003160  0.3656499999965023
  0.1517720000034040  0.7559629999996841  0.1343500000034976
  0.8482279999965960  0.2440370000003159  0.1343500000034976
  0.6517720000034040  0.7440370000003160  0.6343500000034976
  0.3482279999965960  0.2559629999996840  0.6343500000034976
  0.8482279999965960  0.2440370000003159  0.8656499999965024
  0.1517720000034040  0.7559629999996841  0.8656499999965024
  0.6209649999999087  0.2835010000031101  0.3295569999966016
  0.3790350000000913  0.7164989999968898  0.3295569999966016
  0.8790350000000913  0.7835010000031102  0.1704430000033983
  0.1209649999999087  0.2164989999968898  0.1704430000033983
  0.3790350000000913  0.7164989999968898  0.6704430000033983
  0.6209649999999087  0.2835010000031101  0.6704430000033983
  0.1209649999999087  0.2164989999968898  0.8295569999966017
  0.8790350000000913  0.7835010000031102  0.8295569999966017
  0.4913699999975057  0.3853219999975254  0.1497609999953819
  0.5086300000024944  0.6146780000024745  0.1497609999953819
  0.0086300000024943  0.8853219999975255  0.3502390000046181
  0.9913699999975056  0.1146780000024745  0.3502390000046181
  0.5086300000024944  0.6146780000024745  0.8502390000046181
  0.4913699999975057  0.3853219999975254  0.8502390000046181
  0.9913699999975056  0.1146780000024745  0.6497609999953819
  0.0086300000024943  0.8853219999975255  0.6497609999953819
  0.8337470000004519  0.6534479999980651  0.5000000000000000
  0.1662529999995481  0.3465520000019349  0.5000000000000000
  0.6662529999995481  0.1534479999980651  0.0000000000000000
  0.3337470000004519  0.8465520000019350  0.0000000000000000
  0.8615180000000704  0.4881219999995070  0.4207679999999492
  0.1384819999999296  0.5118780000004930  0.4207679999999492
  0.6384819999999296  0.9881219999995070  0.0792320000000507
  0.3615180000000704  0.0118780000004929  0.0792320000000507
  0.1384819999999296  0.5118780000004930  0.5792320000000508
  0.8615180000000704  0.4881219999995070  0.5792320000000508
  0.3615180000000704  0.0118780000004929  0.9207679999999492
  0.6384819999999296  0.9881219999995070  0.9207679999999492
  0.7196269999981016  0.4349009999965948  0.2302199999963662
  0.2803730000018984  0.5650990000034051  0.2302199999963662
  0.7803730000018984  0.9349009999965949  0.2697800000036337
  0.2196269999981015  0.0650990000034051  0.2697800000036337
  0.2803730000018984  0.5650990000034051  0.7697800000036338
  0.7196269999981016  0.4349009999965948  0.7697800000036338
  0.2196269999981015  0.0650990000034051  0.7302199999963663
  0.7803730000018984  0.9349009999965949  0.7302199999963663
  0.7838840000000676  0.6124839999984981  0.2383080000048270
  0.2161159999999324  0.3875160000015019  0.2383080000048270
  0.7161159999999324  0.1124839999984979  0.2616919999951728
  0.2838840000000675  0.8875160000015020  0.2616919999951728
  0.2161159999999324  0.3875160000015019  0.7616919999951729
  0.7838840000000676  0.6124839999984981  0.7616919999951729
  0.2838840000000675  0.8875160000015020  0.7383080000048272
  0.7161159999999324  0.1124839999984979  0.7383080000048272
  0.8493839999925269  0.5894119999983829  0.3714160000056095
  0.1506160000074731  0.4105880000016172  0.3714160000056095
  0.6506160000074731  0.0894119999983829  0.1285839999943904
  0.3493839999925270  0.9105880000016172  0.1285839999943904
  0.1506160000074731  0.4105880000016172  0.6285839999943905
  0.8493839999925269  0.5894119999983829  0.6285839999943905
  0.3493839999925270  0.9105880000016172  0.8714160000056095
  0.6506160000074731  0.0894119999983829  0.8714160000056095
  0.8027679999969694  0.4063589999997927  0.3488139999999133
  0.1972320000030306  0.5936410000002073  0.3488139999999133
  0.6972320000030306  0.9063589999997927  0.1511860000000866
  0.3027679999969695  0.0936410000002072  0.1511860000000866
  0.1972320000030306  0.5936410000002073  0.6511860000000866
  0.8027679999969694  0.4063589999997927  0.6511860000000866
  0.3027679999969695  0.0936410000002072  0.8488139999999134
  0.6972320000030306  0.9063589999997927  0.8488139999999134
  0.7198259999915695  0.5318589999974661  0.1689619999949684
  0.2801740000084305  0.4681410000025339  0.1689619999949684
  0.7801740000084305  0.0318589999974659  0.3310380000050315
  0.2198259999915695  0.9681410000025340  0.3310380000050315
  0.2801740000084305  0.4681410000025339  0.8310380000050316
  0.7198259999915695  0.5318589999974661  0.8310380000050316
  0.2198259999915695  0.9681410000025340  0.6689619999949685
  0.7801740000084305  0.0318589999974659  0.6689619999949685
