generated by phonopy
   1.0
    10.1080009099001540    0.0000000000000000    0.0000000000000000
     0.0000000000000000    4.7184390003000001    0.0000000000000000
    -5.7594996645552206    0.0000000000000000   15.0896588871217965
C
  48
Direct
  0.0389119999971189  0.9203260000020985  0.3757349999987359
  0.9610880000028811  0.4203260000020985  0.1242650000012641
  0.9610880000028811  0.0796739999979015  0.6242650000012641
  0.0389119999971189  0.5796739999979015  0.8757349999987359
  0.1806970000027524  0.9705399999891571  0.3908750000015714
  0.8193029999972476  0.4705399999891571  0.1091249999984286
  0.8193029999972476  0.0294600000108429  0.6091249999984286
  0.1806970000027524  0.5294600000108429  0.8908750000015714
  0.2854389999977455  0.8620650000013521  0.4483250000038962
  0.7145610000022545  0.3620650000013521  0.0516749999961038
  0.7145610000022545  0.1379349999986479  0.5516749999961038
  0.2854389999977455  0.6379349999986479  0.9483250000038962
  0.2871659999961014  0.6655139999903243  0.5124170000014528
  0.7128340000038986  0.1655139999903243  0.9875829999985472
  0.7128340000038986  0.3344860000096757  0.4875829999985472
  0.2871659999961014  0.8344860000096757  0.0124170000014527
  0.3908209999976719  0.5276650000014201  0.5810940000031874
  0.6091790000023281  0.0276650000014200  0.9189059999968126
  0.6091790000023281  0.4723349999985799  0.4189059999968126
  0.3908209999976719  0.9723349999985799  0.0810940000031874
  0.3743209999948975  0.3519680000089880  0.6337960000011791
  0.6256790000051025  0.8519680000089880  0.8662039999988209
  0.6256790000051025  0.6480319999910120  0.3662039999988209
  0.3743209999948975  0.1480319999910120  0.1337960000011791
  0.2483390000002992  0.2474909999950731  0.6374029999998709
  0.7516609999997008  0.7474909999950731  0.8625970000001291
  0.7516609999997008  0.7525090000049269  0.3625970000001291
  0.2483390000002992  0.2525090000049269  0.1374029999998709
  0.2102380000002990  0.0527990000049084  0.6890710000024486
  0.7897619999997010  0.5527990000049084  0.8109289999975514
  0.7897619999997010  0.9472009999950916  0.3109289999975514
  0.2102380000002990  0.4472009999950916  0.1890710000024485
  0.0890169999948839  0.9802719999995587  0.6833399999988512
  0.9109830000051161  0.4802719999995588  0.8166600000011488
  0.9109830000051161  0.0197280000004413  0.3166600000011488
  0.0890169999948839  0.5197280000004413  0.1833399999988512
  0.0190540000004903  0.7058239999898808  0.4387279999991368
  0.9809459999995097  0.2058239999898808  0.0612720000008632
  0.9809459999995097  0.2941760000101192  0.5612720000008632
  0.0190540000004903  0.7941760000101192  0.9387279999991368
  0.1411530000018200  0.5816690000073116  0.5062020000004995
  0.8588469999981800  0.0816690000073117  0.9937979999995005
  0.8588469999981800  0.4183309999926884  0.4937979999995005
  0.1411530000018200  0.9183309999926884  0.0062020000004996
  0.1220839999992283  0.3762279999989682  0.5675830000033764
  0.8779160000007717  0.8762279999989682  0.9324169999966236
  0.8779160000007717  0.6237720000010318  0.4324169999966236
  0.1220839999992283  0.1237720000010318  0.0675830000033764
