generated by phonopy
   1.0
     1.1556675230583924   -1.1516615316088534    0.0000000000000000
     1.1556675230583924    1.1516615316088534    0.0000000000000000
     0.0000000000000000    0.0000000000000000    9.8798732343999998
C
   2
Direct
  0.6687849999812068  0.3312150000187932  0.7500000000000000
  0.3312150000187932  0.6687849999812068  0.2500000000000000
