generated by phonopy
   1.0
     2.4680307269988839    0.0000000000000000    0.0000000000000000
    -1.2340153634994420    2.1373773069016102    0.0000000000000000
     0.0000000000000000    0.0000000000000000   14.9975561723999995
C
   4
Direct
  0.0000000000000000  0.0000000000000000  0.7500000000000000
  0.0000000000000000  0.0000000000000000  0.2500000000000000
  0.6666666666666666  0.3333333333333333  0.7500000000000000
  0.3333333333333334  0.6666666666666667  0.2500000000000000
