generated by phonopy
   1.0
     5.0544038659045158   -8.7061274064391814    0.0000000000000000
     5.0544038659045158    8.7061274064391814    0.0000000000000000
     0.0000000000000000    0.0000000000000000   17.9999556550000008
C
 140
Direct
  0.1790780000060215  0.3713540000035218  0.4297200000018554
  0.5157289999957548  0.6265420000010098  0.8174259999975537
  0.0267650000057773  0.4809600000062602  0.6829300000017137
  0.9557899999946451  0.4374899999990514  0.2500000000000000
  0.6286459999964782  0.8209219999939785  0.4297200000018554
  0.1224979999955393  0.7398090000027366  0.1141719999976300
  0.0449659999973644  0.2809400000034823  0.3172760000002343
  0.4363000000007894  0.5636999999992106  0.0131740000000572
  0.0529160000004808  0.3588290000065798  0.1142259999973316
  0.8775020000044607  0.2601909999972634  0.6141719999976301
  0.3757340000012631  0.7671710000059945  0.0305009999981580
  0.5157289999957548  0.6265420000010098  0.6825740000024463
  0.8209219999939785  0.6286459999964782  0.9297200000018554
  0.4986930000044229  0.7333150000066595  0.0279279999981755
  0.9470839999995191  0.6411709999934201  0.8857740000026684
  0.0165989999986211  0.4758510000028260  0.1141640000001433
  0.3091370000046985  0.4034880000040821  0.7500000000000000
  0.6908629999953015  0.5965119999959179  0.2500000000000000
  0.2328289999940055  0.6242659999987369  0.0305009999981580
  0.9470839999995191  0.6411709999934201  0.6142259999973316
  0.4986930000044229  0.7333150000066595  0.4720720000018245
  0.6265420000010097  0.5157289999957548  0.3174259999975537
  0.0065419999991276  0.6855359999997976  0.7500000000000000
  0.8339100000012261  0.7553009999984912  0.6825839999993043
  0.3734579999989902  0.4842710000042452  0.8174259999975537
  0.5138849999951924  0.4861150000048076  0.0610650000015236
  0.3885130000045832  0.8921080000043012  0.4286460000003816
  0.6997120000020542  0.7494799999997415  0.1139230000008575
  0.5965119999959179  0.6908629999953015  0.7500000000000000
  0.9732349999942227  0.5190399999937400  0.3170699999982863
  0.6114869999954169  0.1078919999956987  0.9286460000003816
  0.9732349999942227  0.5190399999937400  0.1829300000017136
  0.7671710000059944  0.3757340000012632  0.9694990000018420
  0.5013069999955770  0.2666849999933406  0.5279279999981755
  0.6997120000020542  0.7494799999997415  0.3860769999991425
  0.3885130000045832  0.8921080000043012  0.0713539999996184
  0.7614009999922318  0.7577909999950805  0.7500000000000000
  0.8775020000044607  0.2601909999972634  0.8858280000023699
  0.6265420000010097  0.5157289999957548  0.1825740000024463
  0.3606289999999174  0.4075519999985916  0.6138359999976343
  0.2328289999940055  0.6242659999987369  0.4694990000018420
  0.4861150000048076  0.5138849999951924  0.5610650000015236
  0.3588290000065798  0.0529160000004808  0.8857740000026684
  0.0869600000000654  0.7677909999968195  0.2500000000000000
  0.0165989999986211  0.4758510000028260  0.3858359999998567
  0.8339100000012261  0.7553009999984912  0.8174160000006957
  0.5013069999955770  0.2666849999933406  0.9720720000018245
  0.5924480000014084  0.6393710000000826  0.8861640000023657
  0.9550340000026356  0.7190599999965177  0.6827239999997656
  0.4075519999985917  0.3606289999999173  0.1138359999976344
  0.3757340000012631  0.7671710000059945  0.4694990000018420
  0.2322090000031805  0.9130399999999346  0.2500000000000000
  0.5636999999992107  0.4363000000007893  0.9868259999999428
  0.4075519999985917  0.3606289999999173  0.3861640000023657
  0.0529160000004808  0.3588290000065798  0.3857740000026684
  0.6824619999978820  0.0382550000051227  0.8171829999988962
  0.4363000000007894  0.5636999999992106  0.4868259999999428
  0.5636999999992107  0.4363000000007893  0.5131740000000572
  0.0449659999973644  0.2809400000034823  0.1827239999997657
  0.7677909999968195  0.0869600000000654  0.7500000000000000
  0.6242659999987368  0.2328289999940056  0.5305009999981580
  0.1224979999955393  0.7398090000027366  0.3858280000023700
  0.6286459999964782  0.8209219999939785  0.0702799999981446
  0.2809400000034823  0.0449659999973644  0.6827239999997656
  0.5190399999937398  0.9732349999942227  0.8170699999982863
  0.6824619999978820  0.0382550000051227  0.6828170000011038
  0.1790780000060215  0.3713540000035218  0.0702799999981446
  0.3713540000035218  0.1790780000060215  0.9297200000018554
  0.2601909999972634  0.8775020000044607  0.1141719999976300
  0.6393710000000827  0.5924480000014083  0.3861640000023657
  0.7333150000066594  0.4986930000044230  0.9720720000018245
  0.4842710000042451  0.3734579999989903  0.1825740000024463
  0.8921080000043013  0.3885130000045832  0.5713539999996184
  0.6855359999997976  0.0065419999991276  0.2500000000000000
  0.9934580000008724  0.3144640000002024  0.2500000000000000
  0.0382550000051227  0.6824619999978820  0.3171829999988962
  0.7190599999965177  0.9550340000026356  0.1827239999997657
  0.9834010000013789  0.5241489999971740  0.6141640000001433
  0.3175380000021180  0.9617449999948773  0.1828170000011038
  0.5241489999971740  0.9834010000013789  0.1141640000001433
  0.4809600000062601  0.0267650000057774  0.3170699999982863
  0.2505200000002585  0.3002879999979458  0.3860769999991425
  0.9130399999999346  0.2322090000031805  0.7500000000000000
  0.3002879999979458  0.2505200000002585  0.8860769999991425
  0.4758510000028260  0.0165989999986211  0.8858359999998567
  0.4374899999990514  0.9557899999946451  0.7500000000000000
  0.7333150000066594  0.4986930000044230  0.5279279999981755
  0.8921080000043013  0.3885130000045832  0.9286460000003816
  0.3734579999989902  0.4842710000042452  0.6825740000024463
  0.1078919999956988  0.6114869999954168  0.4286460000003816
  0.1660899999987739  0.2446990000015088  0.1825839999993044
  0.3713540000035218  0.1790780000060215  0.5702799999981446
  0.7577909999950805  0.7614009999922318  0.2500000000000000
  0.6411709999934201  0.9470839999995191  0.1142259999973316
  0.5625100000009486  0.0442100000053549  0.2500000000000000
  0.2809400000034823  0.0449659999973644  0.8172760000002344
  0.4861150000048076  0.5138849999951924  0.9389349999984764
  0.2666849999933405  0.5013069999955770  0.0279279999981755
  0.1078919999956988  0.6114869999954168  0.0713539999996184
  0.9617449999948773  0.3175380000021180  0.6828170000011038
  0.6242659999987368  0.2328289999940056  0.9694990000018420
  0.5138849999951924  0.4861150000048076  0.4389349999984764
  0.7494799999997416  0.6997120000020542  0.6139230000008575
  0.7671710000059944  0.3757340000012632  0.5305009999981580
  0.3606289999999174  0.4075519999985916  0.8861640000023657
  0.7398090000027366  0.1224979999955393  0.6141719999976301
  0.6114869999954169  0.1078919999956987  0.5713539999996184
  0.7494799999997416  0.6997120000020542  0.8860769999991425
  0.2666849999933405  0.5013069999955770  0.4720720000018245
  0.5190399999937398  0.9732349999942227  0.6829300000017137
  0.2446990000015088  0.1660899999987739  0.8174160000006957
  0.0442100000053549  0.5625100000009486  0.7500000000000000
  0.6411709999934201  0.9470839999995191  0.3857740000026684
  0.2385990000077682  0.2422090000049195  0.2500000000000000
  0.1660899999987739  0.2446990000015088  0.3174160000006957
  0.2446990000015088  0.1660899999987739  0.6825839999993043
  0.7553009999984912  0.8339100000012261  0.1825839999993044
  0.4758510000028260  0.0165989999986211  0.6141640000001433
  0.2505200000002585  0.3002879999979458  0.1139230000008575
  0.7553009999984912  0.8339100000012261  0.3174160000006957
  0.4809600000062601  0.0267650000057774  0.1829300000017136
  0.5241489999971740  0.9834010000013789  0.3858359999998567
  0.3175380000021180  0.9617449999948773  0.3171829999988962
  0.9834010000013789  0.5241489999971740  0.8858359999998567
  0.4034880000040821  0.3091370000046985  0.2500000000000000
  0.3002879999979458  0.2505200000002585  0.6139230000008575
  0.8209219999939785  0.6286459999964782  0.5702799999981446
  0.7190599999965177  0.9550340000026356  0.3172760000002343
  0.0382550000051227  0.6824619999978820  0.1828170000011038
  0.2422090000049195  0.2385990000077682  0.7500000000000000
  0.3144640000002024  0.9934580000008724  0.7500000000000000
  0.9550340000026356  0.7190599999965177  0.8172760000002344
  0.9617449999948773  0.3175380000021180  0.8171829999988962
  0.3588290000065798  0.0529160000004808  0.6142259999973316
  0.5924480000014084  0.6393710000000826  0.6138359999976343
  0.0267650000057773  0.4809600000062602  0.8170699999982863
  0.7398090000027366  0.1224979999955393  0.8858280000023699
  0.4842710000042451  0.3734579999989903  0.3174259999975537
  0.6393710000000827  0.5924480000014083  0.1138359999976344
  0.2601909999972634  0.8775020000044607  0.3858280000023700
