generated by phonopy
   1.0
     1.2629374028584217    0.7291572495099565   14.4800992443294607
    -1.2629374028584217    0.7291572495099565   14.4800992443294607
     0.0000000000000000   -1.4583144990199131   14.4800992443294607
C
  14
Direct
  0.4104640000260649  0.4104640000260649  0.4104640000260649
  0.3036950000280085  0.3036950000280085  0.3036950000280085
  0.5895359999739350  0.5895359999739348  0.5895359999739350
  0.1725750000278905  0.1725750000278905  0.1725750000278905
  0.8274249999721093  0.8274249999721094  0.8274249999721093
  0.5533870000271137  0.5533870000271138  0.5533870000271138
  0.2081380000270483  0.2081380000270483  0.2081380000270483
  0.7318870000275349  0.7318870000275349  0.7318870000275349
  0.2681129999724650  0.2681129999724650  0.2681129999724650
  0.4466129999728861  0.4466129999728860  0.4466129999728861
  0.0178040000282908  0.0178040000282908  0.0178040000282909
  0.7918619999729515  0.7918619999729516  0.7918619999729515
  0.6963049999719914  0.6963049999719914  0.6963049999719914
  0.9821959999717089  0.9821959999717090  0.9821959999717090
