generated by phonopy
   1.0
     2.4677513215877793    0.0000000000000000    0.0000000000000000
    -1.2338756607938897    2.1371353347176387    0.0000000000000000
     0.0000000000000000    0.0000000000000000   25.8292108632999984
C
   4
Direct
  0.0000000000000000  0.0000000000000000  0.5711899999996776
  0.0000000000000000  0.0000000000000000  0.4288100000003224
  0.3333333333333333  0.6666666666666666  0.4288190000004087
  0.6666666666666667  0.3333333333333334  0.5711809999995914
