generated by phonopy
   1.0
     2.4677232751855644    0.0000000000000000    0.0000000000000000
    -1.2338616375927822    2.1371110458208356    0.0000000000000000
     0.0000000000000000    0.0000000000000000    8.6850344317000001
C
   4
Direct
  0.0000000000000000  0.0000000000000000  0.2500000000000000
  0.0000000000000000  0.0000000000000000  0.7500000000000000
  0.6666666666666667  0.3333333333333333  0.2500000000000000
  0.3333333333333333  0.6666666666666667  0.7500000000000000
