generated by phonopy
   1.0
     9.0720845439000009    0.0000000000000000    0.0000000000000000
     0.0000000000000000    2.5260168843000002    0.0000000000000000
     0.0000000000000000    0.0000000000000000    4.1595931626000002
C
  16
Direct
  0.6952270000025390  0.7500000000000000  0.4235199999941453
  0.1952270000025389  0.7500000000000000  0.0764800000058546
  0.3047729999974610  0.2500000000000000  0.5764800000058548
  0.8047729999974610  0.2500000000000000  0.9235199999941454
  0.6894799999996504  0.2500000000000000  0.1984090000004078
  0.1894799999996504  0.2500000000000000  0.3015909999995921
  0.3105200000003496  0.7500000000000000  0.8015909999995922
  0.8105200000003496  0.7500000000000000  0.6984090000004080
  0.0205560000044744  0.2500000000000000  0.4082049999905920
  0.5205560000044744  0.2500000000000000  0.0917950000094080
  0.9794439999955256  0.7500000000000000  0.5917950000094081
  0.4794439999955256  0.7500000000000000  0.9082049999905920
  0.9631670000033584  0.2500000000000000  0.0683740000000931
  0.4631670000033585  0.2500000000000000  0.4316259999999068
  0.0368329999966416  0.7500000000000000  0.9316259999999068
  0.5368329999966416  0.7500000000000000  0.5683740000000932
