generated by phonopy
   1.0
     1.2346851986110703    0.7128458317825479   11.8543529668417822
    -1.2346851986110703    0.7128458317825479   11.8543529668417822
     0.0000000000000000   -1.4256916635650958   11.8543529668417822
C
   4
Direct
  0.9492440000210465  0.9492440000210465  0.9492440000210465
  0.2825350000207931  0.2825350000207931  0.2825350000207931
  0.7174649999792070  0.7174649999792070  0.7174649999792070
  0.0507559999789535  0.0507559999789535  0.0507559999789535
