generated by phonopy
   1.0
     2.1275711378728555   -4.3856022269487251    0.0000000000000000
     2.1275711378728555    4.3856022269487251    0.0000000000000000
     0.0000000000000000    0.0000000000000000    2.5146882631000000
C
   8
Direct
  0.6482120000084053  0.9814980000015772  0.0000000000000000
  0.3517879999915947  0.0185019999984228  0.0000000000000000
  0.0185019999984228  0.3517879999915947  0.0000000000000000
  0.9814980000015772  0.6482120000084053  0.0000000000000000
  0.4046839999954244  0.2263690000110310  0.5000000000000000
  0.5953160000045756  0.7736309999889690  0.5000000000000000
  0.7736309999889690  0.5953160000045756  0.5000000000000000
  0.2263690000110310  0.4046839999954244  0.5000000000000000
