generated by phonopy
   1.0
     0.0000000000000000    2.1374662317500039    3.9900123524436553
     1.2340346079943254    0.0000000000000000    3.9900123524436553
     1.2340346079943254    2.1374662317500039    0.0000000000000000
C
   2
Direct
  0.6666660000122697  0.3333339999877303  0.6666660000122697
  0.3333339999877303  0.6666660000122697  0.3333339999877303
