generated by phonopy
   1.0
     2.5199429906974604    0.0000000000000000    0.0000000000000000
    -1.2599714953487302    2.1823346460325341    0.0000000000000000
     0.0000000000000000    0.0000000000000000    8.3074417709000006
C
   8
Direct
  0.0000000000000000  0.0000000000000000  0.0929610000042571
  0.6666666666666666  0.3333333333333333  0.8444630000024642
  0.0000000000000000  0.0000000000000000  0.9070389999957429
  0.3333333333333334  0.6666666666666667  0.1555369999975358
  0.0000000000000000  0.0000000000000000  0.4070389999957428
  0.6666666666666667  0.3333333333333333  0.6555369999975358
  0.0000000000000000  0.0000000000000000  0.5929610000042572
  0.3333333333333333  0.6666666666666667  0.3444630000024642
