generated by phonopy
   1.0
     0.0000000000000000    7.0117454097523408    7.0117454097523408
     7.0117454097523408    0.0000000000000000    7.0117454097523408
     7.0117454097523408    7.0117454097523408    0.0000000000000000
C
  60
Direct
  0.4269579999935296  0.9014570000057662  0.4694279999982962
  0.0985429999942338  0.5730420000064704  0.7978429999975920
  0.9016179999937954  0.3014380000089700  0.5311129999940027
  0.2021570000024080  0.4269579999935296  0.4694279999982962
  0.5730420000064704  0.7978429999975920  0.0985429999942338
  0.7341689999967682  0.4688870000059973  0.6985619999910300
  0.9014570000057662  0.2021570000024080  0.4694279999982962
  0.6985619999910300  0.7341689999967682  0.4688870000059973
  0.6990020000033428  0.7990590000022295  0.3009979999966572
  0.4688870000059973  0.6985619999910300  0.7341689999967682
  0.7978429999975920  0.0985429999942338  0.5730420000064704
  0.5311129999940027  0.3014380000089700  0.2658310000032318
  0.7990590000022295  0.3009979999966572  0.6990020000033428
  0.5305720000017038  0.0985429999942338  0.7978429999975920
  0.4694279999982962  0.4269579999935296  0.9014570000057662
  0.0985429999942338  0.7978429999975920  0.5305720000017038
  0.4688870000059973  0.0983820000062046  0.6985619999910300
  0.4269579999935296  0.4694279999982962  0.2021570000024080
  0.5730420000064704  0.5305720000017038  0.7978429999975920
  0.5305720000017038  0.7978429999975920  0.5730420000064704
  0.3014380000089700  0.5311129999940027  0.9016179999937954
  0.0985429999942338  0.5305720000017038  0.5730420000064704
  0.2009409999977705  0.6990020000033428  0.3009979999966572
  0.0983820000062046  0.7341689999967682  0.6985619999910300
  0.2658310000032318  0.5311129999940027  0.3014380000089700
  0.2021570000024080  0.9014570000057662  0.4269579999935296
  0.9014570000057662  0.4269579999935296  0.2021570000024080
  0.3009979999966572  0.2009409999977705  0.6990020000033428
  0.3014380000089700  0.2658310000032318  0.5311129999940027
  0.5305720000017038  0.5730420000064704  0.0985429999942338
  0.2658310000032318  0.3014380000089700  0.9016179999937954
  0.3014380000089700  0.9016179999937954  0.2658310000032318
  0.0983820000062046  0.4688870000059973  0.7341689999967682
  0.2009409999977705  0.3009979999966572  0.7990590000022295
  0.4688870000059973  0.7341689999967682  0.0983820000062046
  0.5730420000064704  0.0985429999942338  0.5305720000017038
  0.3009979999966572  0.6990020000033428  0.7990590000022295
  0.5311129999940027  0.9016179999937954  0.3014380000089700
  0.7341689999967682  0.6985619999910300  0.0983820000062046
  0.2658310000032318  0.9016179999937954  0.5311129999940027
  0.2021570000024080  0.4694279999982962  0.9014570000057662
  0.9016179999937954  0.5311129999940027  0.2658310000032318
  0.7990590000022295  0.6990020000033428  0.2009409999977705
  0.6985619999910300  0.0983820000062046  0.7341689999967682
  0.3009979999966572  0.7990590000022295  0.2009409999977705
  0.7341689999967682  0.0983820000062046  0.4688870000059973
  0.9014570000057662  0.4694279999982962  0.4269579999935296
  0.4694279999982962  0.9014570000057662  0.2021570000024080
  0.6985619999910300  0.4688870000059973  0.0983820000062046
  0.6990020000033428  0.2009409999977705  0.7990590000022295
  0.7990590000022295  0.2009409999977705  0.3009979999966572
  0.7978429999975920  0.5305720000017038  0.0985429999942338
  0.7978429999975920  0.5730420000064704  0.5305720000017038
  0.5311129999940027  0.2658310000032318  0.9016179999937954
  0.9016179999937954  0.2658310000032318  0.3014380000089700
  0.4269579999935296  0.2021570000024080  0.9014570000057662
  0.0983820000062046  0.6985619999910300  0.4688870000059973
  0.6990020000033428  0.3009979999966572  0.2009409999977705
  0.4694279999982962  0.2021570000024080  0.4269579999935296
  0.2009409999977705  0.7990590000022295  0.6990020000033428
