generated by phonopy
   1.0
     1.1302246907032332   -1.1483826780851185    0.0000000000000000
     1.1302246907032332    1.1483826780851185    0.0000000000000000
     0.0000000000000000    0.0000000000000000    6.3990326550000001
C
   2
Direct
  0.6681580000085336  0.3318419999914664  0.7500000000000000
  0.3318419999914664  0.6681580000085336  0.2500000000000000
