generated by phonopy
   1.0
     2.5130927944354968    0.0000000000000000    0.0000000000000000
    -1.2565463972177484    2.1764022020487643    0.0000000000000000
     0.0000000000000000    0.0000000000000000    4.1814005468000000
C
   4
Direct
  0.6666666666666666  0.3333333333333333  0.0627719999943251
  0.3333333333333333  0.6666666666666666  0.5627719999943251
  0.3333333333333334  0.6666666666666667  0.9372280000056749
  0.6666666666666667  0.3333333333333334  0.4372280000056749
