generated by phonopy
   1.0
     5.2173597761000003    0.0000000000000000    0.0000000000000000
     0.0000000000000000    5.2173597761000003    0.0000000000000000
     0.0000000000000000    0.0000000000000000    5.2173597761000003
C
  20
Direct
  0.5000000000000000  0.1515120000006779  0.8484879999993220
  0.1515120000006780  0.1515120000006779  0.5000000000000000
  0.1515120000006779  0.5000000000000000  0.8484879999993220
  0.5000000000000000  0.8484879999993220  0.1515120000006780
  0.1515120000006780  0.8484879999993220  0.5000000000000000
  0.1515120000006779  0.5000000000000000  0.1515120000006780
  0.5000000000000000  0.1515120000006779  0.1515120000006780
  0.8484879999993220  0.1515120000006779  0.5000000000000000
  0.8484879999993220  0.5000000000000000  0.1515120000006780
  0.5000000000000000  0.8484879999993220  0.8484879999993220
  0.8484879999993220  0.8484879999993220  0.5000000000000000
  0.8484879999993220  0.5000000000000000  0.8484879999993220
  0.2624229999954975  0.2624229999954975  0.7375770000045023
  0.2624229999954975  0.7375770000045025  0.2624229999954976
  0.7375770000045025  0.2624229999954975  0.2624229999954976
  0.7375770000045025  0.7375770000045025  0.7375770000045023
  0.7375770000045025  0.7375770000045025  0.2624229999954976
  0.7375770000045025  0.2624229999954975  0.7375770000045023
  0.2624229999954975  0.7375770000045025  0.7375770000045023
  0.2624229999954975  0.2624229999954975  0.2624229999954976
