generated by phonopy
   1.0
     1.2336806332037840   -2.1372613641737233    0.0000000000000000
     1.2336806332037840    2.1372613641737233    0.0000000000000000
     0.0000000000000000    0.0000000000000000    8.0283247164000002
C
   4
Direct
  0.0834210000044191  0.9165789999955809  0.7600580000003050
  0.5834210000044191  0.4165789999955809  0.2399419999996950
  0.9165789999955809  0.0834210000044191  0.2399419999996950
  0.4165789999955809  0.5834210000044191  0.7600580000003050
