generated by phonopy
   1.0
    -0.8101346599560626    0.8101346599560626    3.1216106569348563
     0.8101346599560626   -0.8101346599560626    3.1216106569348563
     0.8101346599560626    0.8101346599560626   -3.1216106569348563
C
   1
Direct
  0.0000000000000000  0.0000000000000000  0.0000000000000000
