generated by phonopy
   1.0
     1.2828986180858426    0.0000000000000000    0.0000000000000000
     0.0000000000000000    3.3388227019999999    0.0000000000000000
    -0.4461778621281311    0.0000000000000000    3.4015049130388939
C
   1
Direct
  0.0000000000000000  0.0000000000000000  0.0000000000000000
