generated by phonopy
   1.0
    -2.2384691364522271    2.2384691364522271    2.2384691364522271
     2.2384691364522271   -2.2384691364522271    2.2384691364522271
     2.2384691364522271    2.2384691364522271   -2.2384691364522271
C
   8
Direct
  0.6882709999920582  0.6882709999920582  0.6882709999920582
  0.8117290000079418  0.5000000000000000  0.0000000000000000
  0.0000000000000000  0.8117290000079418  0.5000000000000000
  0.5000000000000000  0.0000000000000000  0.8117290000079418
  0.3117290000079418  0.3117290000079418  0.3117290000079418
  0.1882709999920582  0.5000000000000000  0.0000000000000000
  0.0000000000000000  0.1882709999920582  0.5000000000000000
  0.5000000000000000  0.0000000000000000  0.1882709999920582
