generated by phonopy
   1.0
    -4.5643571971556476    4.5854701735511005    7.5853980312292455
     4.5643571971556476   -4.5854701735511005    7.5853980312292455
     4.5643571971556476    4.5854701735511005   -7.5853980312292455
C
  60
Direct
  0.7642189999999063  0.7982490000010312  0.4653069999963582
  0.6670579999953270  0.7010879999964519  0.4653069999963582
  0.6397320000019557  0.0526445000003268  0.5870875000016289
  0.0829490000034933  0.7521340000070622  0.1724450000123663
  0.9178720000087619  0.7447550000137568  0.5079500000119721
  0.0821279999912381  0.2552449999862432  0.4920499999880279
  0.4203110000053042  0.0894960000088730  0.1724450000123663
  0.6764900000093093  0.9594620000030218  0.0286650000048945
  0.3329420000046730  0.7982490000010312  0.0340300000011249
  0.2357810000000937  0.7010879999964519  0.0340300000011249
  0.9307969999981274  0.6478250000044148  0.9713349999951055
  0.0692030000018726  0.0405379999969782  0.7170280000062874
  0.2300920000073750  0.8653960000094905  0.7961890000154390
  0.3602679999980443  0.9473554999996732  0.4129124999983711
  0.5344430000013021  0.9473554999996732  0.5870875000016289
  0.2253470000041766  0.1491290000051949  0.9237820000010183
  0.9178720000087619  0.4099219999967898  0.1731169999950051
  0.0829490000034933  0.9105039999911271  0.3308149999964312
  0.0692030000018726  0.3521749999955852  0.0286650000048945
  0.3329420000046730  0.2989120000035481  0.5346930000036418
  0.4655569999986979  0.0526445000003268  0.4129124999983711
  0.3235099999906907  0.0405379999969782  0.9713349999951055
  0.7607320000010256  0.2241740000077294  0.7946720000044278
  0.0883500000033195  0.5879760000027470  0.6763260000060665
  0.6764900000093093  0.6478250000044148  0.7170280000062874
  0.9116499999966805  0.4120239999972530  0.3236739999939335
  0.0692069999940515  0.4339029999919359  0.2038109999845610
  0.9307969999981274  0.9594620000030218  0.2829719999937126
  0.3235099999906907  0.3521749999955852  0.2829719999937126
  0.2392679999989745  0.7758259999922708  0.2053279999955722
  0.5704979999966986  0.7758259999922708  0.5365579999932962
  0.7607320000010256  0.9660599999965978  0.5365579999932961
  0.5796889999946959  0.9105039999911271  0.8275549999876337
  0.9170509999965066  0.2478659999929379  0.8275549999876337
  0.2392679999989745  0.0339400000034022  0.4634420000067038
  0.0821279999912381  0.5900780000032102  0.8268830000049949
  0.7631949999982153  0.5900780000032102  0.5079500000119721
  0.9307930000059486  0.5660970000080641  0.7961890000154390
  0.9116499999966805  0.5879760000027470  0.4996259999994275
  0.6670579999953270  0.2017509999989688  0.9659699999988751
  0.0692069999940515  0.8653960000094905  0.6353040000021155
  0.5796889999946959  0.7521340000070622  0.6691850000035688
  0.5704979999966986  0.0339400000034022  0.7946720000044278
  0.4295020000033015  0.9660599999965978  0.2053279999955721
  0.7631949999982153  0.2552449999862432  0.1731169999950051
  0.2368050000017847  0.4099219999967898  0.4920499999880279
  0.7699079999926250  0.5660970000080641  0.6353040000021155
  0.4295020000033015  0.2241740000077294  0.4634420000067038
  0.7699079999926250  0.1346039999905095  0.2038109999845610
  0.4203110000053042  0.2478659999929379  0.3308149999964312
  0.2300920000073750  0.4339029999919359  0.3646959999978845
  0.2253470000041766  0.3015650000031583  0.0762179999989817
  0.2368050000017847  0.7447550000137568  0.8268830000049949
  0.7746529999958234  0.8508709999948050  0.0762179999989817
  0.9307930000059486  0.1346039999905095  0.3646959999978845
  0.2357810000000937  0.2017509999989688  0.5346930000036418
  0.0883500000033195  0.4120239999972530  0.5003740000005725
  0.9170509999965066  0.0894960000088730  0.6691850000035688
  0.7642189999999063  0.2989120000035481  0.9659699999988751
  0.7746529999958234  0.6984349999968418  0.9237820000010184
