TaTbHex
1.0
4.0000000000         0.0000000000         0.0000000000
-2.0000000000         3.4641016151         0.0000000000
0.0000000000         0.0000000000         3.0000000000
C Si
1  1
Direct
0.33333333333333  0.6666666666667  0.000000000 C s I
0.6666666666667   0.33333333333333    0.000000000 C s I

