POSCAR Gen by MATLAB                    
   1.00000000000000     
     2.5378328130574088   -0.0000000171541641    0.0000000000000000
    -1.2689169371122915    2.1978280460016135    0.0000000000000000
     0.0000000000000000    0.0000000000000000   16.0546205221182916
   C    H 
     2     2
Direct
  0.3333330000000032  0.6666669999999968  0.5143017033450548 C s I
  0.3333330000000032  0.6666669999999968  0.5143017033450548 C p x
  0.3333330000000032  0.6666669999999968  0.5143017033450548 C p y
  0.3333330000000032  0.6666669999999968  0.5143017033450548 C p z
  0.6666669999999968  0.3333330000000032  0.4856982966549452 C s I
  0.6666669999999968  0.3333330000000032  0.4856982966549452 C p x
  0.6666669999999968  0.3333330000000032  0.4856982966549452 C p y
  0.6666669999999968  0.3333330000000032  0.4856982966549452 C p z 
  0.3333330000000032  0.6666669999999968  0.5834381410489655 H s I
  0.6666669999999968  0.3333330000000032  0.4165618589510345 H s I