C                                                                               
1
    3.6726066861   -0.4996288727    0.0000000000
    0.0000000000    3.7064361429    0.0000000000
    0.0000000000    0.0000000000    4.2727343803
8                                                                               
cartesian
    0.5480741136    3.0787524424    1.3627501760
    3.1245325725    0.1280548278    2.9099842043
    3.1245325725    0.1280548278    1.3627501760
    0.5480741136    3.0787524424    2.9099842043
    1.8363033431   -0.2498144364    3.6017313550
    1.8363033431   -0.2498144364    0.6710030253
    0.0000000000    1.8532180715    0.6710030253
    0.0000000000    1.8532180715    3.6017313550
