C                                                                               
1
    2.0646462199    3.5776500297    1.8511119789
    0.0000000000    4.1306591414    0.6170052302
    0.0000000000    0.0000000000    2.4681175120
2                                                                               
cartesian
    1.3764294368    3.7619867689    3.0851522692
    0.6882167831    3.9463224022    1.8510824519
