C                                                                               
1
    5.8779683596   -6.6445132474   -1.2865065775
    0.0000000000    8.8713058978   -1.2865065775
    0.0000000000    0.0000000000    8.9641043895
20                                                                              
cartesian
    1.0402064267    0.3940688150    2.7173629040
    4.8377619329    1.8327238354    3.6737283306
    1.0402064267    6.1255179311    7.6775978120
    4.8377619329   -3.8987252807   -1.2865065775
    1.1373398538   -0.8285306357    1.8811726935
    4.7406285058    3.0553232860    4.5099185411
    1.1373398538    7.1285162189   -0.1965717593
    4.7406285058   -4.9017235685    6.5876629938
    0.3028858316    6.8123940539    6.5876629938
    5.5750825280   -4.5856014035   -0.1965717593
    0.3028858316    1.3741415976    1.8811726935
    5.5750825280    0.8526510527    4.5099185411
    0.2983862468    0.1130397887    3.9690193841
    3.4881304348    1.3214333151    3.3375808072
    0.2983862468    4.9271515185    8.1353522904
    3.4881304348   -3.4926784146    8.1353522904
    5.5795821128    2.1137528617    2.4220718505
    2.3898379248    0.9053593352    3.0535104274
    5.5795821128   -2.7003588681    7.2198433337
    2.3898379248    5.7194710650    7.2198433337
