C                                                                               
1
    2.5535221024   -3.2552440922    0.0000000000
    0.0000000000    4.1372804144    0.0000000000
    0.0000000000    0.0000000000    2.5120000439
4                                                                               
cartesian
    1.7604619755   -0.9593107936    1.2560000220
    1.4959936913   -0.1936670304    0.0000000000
    0.7930601270    1.8413471158    1.2560000220
    1.0575284111    1.0757033526    2.5120000439
