C                                                                               
1
    2.1778867741    1.2329280702   10.1671067403
    0.0000000000    2.5026590713   10.1671067403
    0.0000000000    0.0000000000   10.4705951070
10                                                                              
cartesian
    0.9262792018    1.5887863027   13.1016239452
    0.3448749043    0.5915414306    4.8780338543
    1.9412811550    3.3297529545   27.4581741826
    2.1238512253    3.6429034889   30.0405104817
    0.2366056191    0.4058341871    3.3466344049
    0.0540355488    0.0926836526    0.7642981059
    1.2516075723    2.1468008388   17.7031846424
    1.3615320515    2.3353471286   19.2579957462
    1.8330118698    3.1440457109   25.9267747333
    0.8163547226    1.4002400129   11.5468128413
