C                                                                               
1
    2.1371353347   -1.2338756608    0.0000000000
    0.0000000000    2.4677513216    0.0000000000
    0.0000000000    0.0000000000   25.8292108633
4                                                                               
cartesian
    0.0000000000    0.0000000000   14.7533869530
    0.0000000000    0.0000000000   11.0758239103
    0.7123784378    1.2338756731   11.0760563732
    1.4247568969   -0.0000000123   14.7531544901
