C                                                                               
1
    8.3213718262    0.0000000000    0.0000000000
    0.0000000000    9.5966222491    0.0000000000
    0.0000000000    0.0000000000   14.0764156518
120                                                                             
cartesian
    1.2766981511    6.8754904138    2.0465841480
    6.8065409776    6.2159241632    6.3187481455
    1.9162205400    1.5854771550    2.9581024436
    1.5614721377    6.4764148775   13.4501136902
    5.7041755663    8.4424748777    1.6999383362
    1.2766981511    2.7211318354    2.0465841480
    6.7598996885    3.1202073716    0.6263019616
    2.6458550645    8.1790092105    0.7194596804
    5.7687743758    0.6932216048   12.1365307344
    7.0446736752    2.7211318354   12.0298315038
    6.8065409776    3.3806980859    6.3187481455
    5.7221580508    7.9185184961    7.6645097875
    1.5148308486    3.3806980859    7.7576675063
    7.0446736752    6.8754904138   12.0298315038
    0.5251201691    1.1958255018   10.5415180005
    6.5266849217    4.7983111246    9.5781844190
    1.1894069606    4.0895525883    6.6157182865
    1.8797812528    7.2979625150   12.3131615980
    6.0688097584    7.4456353382    6.3493080439
    0.6458715957    5.4738749444   12.8362130508
    2.6171962599    8.4424748777   12.3764773156
    3.1003517509    7.3240749242    4.0130875674
    5.9553728176    0.0000000000    2.5399765930
    2.2444653731    6.3837882796    9.9963102695
    2.6171962599    1.1541473714   12.3764773156
    4.8065575088    8.9210584293    8.2784104269
    2.2809046603    7.0969708586    5.2749537721
    1.5434896532    5.9524584960    5.3382694897
    5.7221580508    1.6781037530    7.6645097875
    1.5148308486    6.2159241632    7.7576675063
    6.7132833636    5.4915327293    5.0983229085
    1.3421374191    0.0000000000   10.6300445786
    7.1319648656    4.0895525883    7.4606973653
    6.7598996885    6.4764148775    0.6263019616
    6.0404671659    7.0969708586    8.8014618797
    5.3500928737    8.8878637129    0.4224895394
    5.6755167617    1.4176130386   13.3569559715
    1.9081238452    2.6473242136    0.6888997820
    6.0769064532    6.3837882796    4.0801053823
    5.4373840642    7.5194429599    4.9916236779
    7.6755002306    4.1227473047    1.2402026010
    5.4373840642    2.0771792892    4.9916236779
    6.9792344071    0.0000000000    3.4463710733
    2.2525620679    7.4456353382    7.7271076079
    6.4051512862    8.0111450941   11.1183132083
    3.5148143175    8.9210584293    5.7980052249
    0.5251201691    8.4007967473   10.5415180005
    3.5148143175    0.6755638198    5.7980052249
    1.6080884627    4.1050895198    8.9780927433
    6.4132479810    6.9492980355   13.3875158698
    2.5992137754    1.6781037530    6.4119058643
    8.2635133279    3.3029366558   11.7820302827
    5.2210200753    2.2725473249   10.0633280844
    3.6355657440    3.6024856227    3.5033101746
    6.4051512862    1.5854771550   11.1183132083
    6.7778821730    5.9524584960    8.7381461621
    4.1028274148    8.1012477804    9.3325931951
    5.2210200753    7.3240749242   10.0633280844
    6.4132479810    2.6473242136   13.3875158698
    6.4415905734    7.2979625150    1.7632540538
    0.7903555747    8.8429035377    3.5521975662
    1.0603341622    7.0708584495   11.0512953933
    1.1894069606    5.5070696608    6.6157182865
    0.6458715957    4.1227473047   12.8362130508
    1.9162205400    8.0111450941    2.9581024436
    7.7962516571    1.1958255018    3.5348976513
    3.6355657440    5.9941366264    3.5033101746
    2.2809046603    2.4996513905    5.2749537721
    5.6755167617    8.1790092105   13.3569559715
    7.5310162516    0.7537187114   10.5242180857
    4.8065575088    0.6755638198    8.2784104269
    4.2185444114    1.4953744687    4.7438224567
    2.3659990086    0.0000000000   11.5364390588
    2.9712789525    0.7087585362   13.6539261125
    7.6755002306    5.4738749444    1.2402026010
    3.3703303384    5.5520298360   10.5904053921
    1.5434896532    3.6441637531    5.3382694897
    8.2635133279    6.2936855933   11.7820302827
    6.7778821730    3.6441637531    8.7381461621
    5.5028233322    4.7983111246   10.4845788992
    2.5525974504    0.6932216048    1.9398849174
    1.7946869045    4.7983111246    4.4982312329
    1.0603341622    2.5257637996   11.0512953933
    2.2525620679    2.1509869109    7.7271076079
    6.4415905734    2.2986597341    1.7632540538
    2.2444653731    3.2128339695    9.9963102695
    4.2185444114    8.1012477804    4.7438224567
    5.7041755663    1.1541473714    1.6999383362
    4.9510414878    4.0445924131    3.4860102598
    6.0688097584    2.1509869109    6.3493080439
    2.8185484940    4.7983111246    3.5918367526
    4.9510414878    5.5520298360    3.4860102598
    2.5525974504    8.9034006443    1.9398849174
    0.0578584983    3.3029366558    2.2943853692
    2.5992137754    7.9185184961    6.4119058643
    2.8839877621    2.0771792892    9.0847919740
    7.7962516571    8.4007967473    3.5348976513
    5.3500928737    0.7087585362    0.4224895394
    0.0578584983    6.2936855933    2.2943853692
    7.2610376640    2.5257637996    3.0251202585
    2.8839877621    7.5194429599    9.0847919740
    6.7132833636    4.1050895198    5.0983229085
    6.0404671659    2.4996513905    8.8014618797
    7.5310162516    8.8429035377   10.5242180857
    0.7903555747    0.7537187114    3.5521975662
    2.9712789525    8.8878637129   13.6539261125
    4.1028274148    1.4953744687    9.3325931951
    4.6858060822    5.9941366264   10.5731054772
    4.6858060822    3.6024856227   10.5731054772
    2.6458550645    1.4176130386    0.7194596804
    1.5614721377    3.1202073716   13.4501136902
    1.6080884627    5.4915327293    8.9780927433
    7.2610376640    7.0708584495    3.0251202585
    6.0769064532    3.2128339695    4.0801053823
    3.3703303384    4.0445924131   10.5904053921
    1.8797812528    2.2986597341   12.3131615980
    5.7687743758    8.9034006443   12.1365307344
    3.1003517509    2.2725473249    4.0130875674
    1.9081238452    6.9492980355    0.6888997820
    7.1319648656    5.5070696608    7.4606973653
