C                                                                               
1
    2.1346814111    1.2147916236   11.6844211481
    0.0000000000    2.4561317993   11.6844211481
    0.0000000000    0.0000000000   11.9397772585
4                                                                               
cartesian
    2.0263335214    3.4846020337   33.5164952606
    0.6031222125    1.0371643493    9.9759208259
    1.5315591986    2.6337590736   25.3326987288
    0.1083478897    0.1863213893    1.7921242941
