C                                                                               
1
    2.1823346460   -1.2599714954    0.0000000000
    0.0000000000    2.5199429907    0.0000000000
    0.0000000000    0.0000000000    8.3074417709
8                                                                               
cartesian
    0.0000000000    0.0000000000    0.7722680945
    1.4548897713   -0.0000000126    7.0153272002
    0.0000000000    0.0000000000    7.5351736764
    0.7274448747    1.2599715080    1.2921145707
    0.0000000000    0.0000000000    3.3814527910
    1.4548897713   -0.0000000126    5.4458354562
    0.0000000000    0.0000000000    4.9259889799
    0.7274448747    1.2599715080    2.8616063147
