C                                                                               
1
    2.1807049433   -2.4880532682   -0.4730207120
    0.0000000000    3.3084563039   -0.4730207120
    0.0000000000    0.0000000000    3.3420998951
4                                                                               
cartesian
    0.3931549328    0.1479088225    1.0345210955
    1.7875500105    0.6724942132    1.3615373755
    0.3931549328    2.2634151862    2.8690791831
    1.7875500105   -1.4430121504   -0.4730207120
