C                                                                               
1
    2.1048521842    1.0734445432    3.5512600189
    0.0000000000    2.3627708108    3.5512600189
    0.0000000000    0.0000000000    4.2654581965
2                                                                               
cartesian
    0.3508115038    0.5727071406    1.8946781964
    1.7540406803    2.8635082134    9.4733000379
