C                                                                               
1
    1.2720024043    0.0000000000   -0.1668494763
    0.0000000000    3.3388227020    0.0000000000
    0.0000000000    0.0000000000    3.4306428491
1                                                                               
cartesian
    0.0000000000    0.0000000000    0.0000000000
