C                                                                               
1
    2.1366949269   -1.2336213912    0.0000000000
    0.0000000000    2.4672427825    0.0000000000
    0.0000000000    0.0000000000   31.9829583369
12                                                                              
cartesian
    0.7122316352    1.2336214036    4.2569317546
    0.7122316352    1.2336214036   20.2483149742
    0.7122316352    1.2336214036   27.7261225311
    0.7122316352    1.2336214036   11.7345474138
    0.0000000000    0.0000000000   23.9872187527
    1.4244632917   -0.0000000123   11.7346433627
    0.0000000000    0.0000000000    7.9957395842
    0.7122316352    1.2336214036   23.9872187527
    1.4244632917   -0.0000000123   27.7260265823
    1.4244632917   -0.0000000123    7.9957395842
    1.4244632917   -0.0000000123   20.2484109231
    1.4244632917   -0.0000000123    4.2568358058
