C                                                                               
1
   14.2956944296    0.0000000000    0.0000000000
    0.0000000000   14.2956944296    0.0000000000
    0.0000000000    0.0000000000   14.2956944296
240                                                                             
cartesian
    5.7129812170   10.3642763902   13.8315705572
    8.5827132125    3.2164291754    7.6119710872
    1.4348659977    3.9314180394    6.6837233424
   12.8608284318   11.0792652542    0.4641238724
   13.8315705572    5.7129812170   10.3642763902
    7.6119710872    8.5827132125    3.2164291754
    6.6837233424    1.4348659977    3.9314180394
    0.4641238724   12.8608284318   11.0792652542
   10.3642763902   13.8315705572    5.7129812170
    3.2164291754    7.6119710872    8.5827132125
    3.9314180394    6.6837233424    1.4348659977
   11.0792652542    0.4641238724   12.8608284318
    8.5827132125    3.9314180394    0.4641238724
    5.7129812170   11.0792652542    6.6837233424
   12.8608284318   10.3642763902    7.6119710872
    1.4348659977    3.2164291754   13.8315705572
    0.4641238724    8.5827132125    3.9314180394
    6.6837233424    5.7129812170   11.0792652542
    7.6119710872   12.8608284318   10.3642763902
   13.8315705572    1.4348659977    3.2164291754
    3.9314180394    0.4641238724    8.5827132125
   11.0792652542    6.6837233424    5.7129812170
   10.3642763902    7.6119710872   12.8608284318
    3.2164291754   13.8315705572    1.4348659977
    7.0564932957   10.6107367354   13.5244667326
    7.2392011339    3.4628895206    7.9190749118
    0.0913539191    3.6849576942    6.3766195178
   14.2043405105   10.8328049090    0.7712276970
   13.5244667326    7.0564932957   10.6107367354
    7.9190749118    7.2392011339    3.4628895206
    6.3766195178    0.0913539191    3.6849576942
    0.7712276970   14.2043405105   10.8328049090
   10.6107367354   13.5244667326    7.0564932957
    3.4628895206    7.9190749118    7.2392011339
    3.6849576942    6.3766195178    0.0913539191
   10.8328049090    0.7712276970   14.2043405105
    7.2392011339    3.6849576942    0.7712276970
    7.0564932957   10.8328049090    6.3766195178
   14.2043405105   10.6107367354    7.9190749118
    0.0913539191    3.4628895206   13.5244667326
    0.7712276970    7.2392011339    3.6849576942
    6.3766195178    7.0564932957   10.8328049090
    7.9190749118   14.2043405105   10.6107367354
   13.5244667326    0.0913539191    3.4628895206
    3.6849576942    0.7712276970    7.2392011339
   10.8328049090    6.3766195178    7.0564932957
   10.6107367354    7.9190749118   14.2043405105
    3.4628895206   13.5244667326    0.0913539191
    5.3203453949   10.0650502080    0.9025931204
    8.9753490347    2.9172029932    6.2452540943
    1.8275018199    4.2306442216    8.0504403352
   12.4681926097   11.3784914364   13.3931013091
    0.9025931204    5.3203453949   10.0650502080
    6.2452540943    8.9753490347    2.9172029932
    8.0504403352    1.8275018199    4.2306442216
   13.3931013091   12.4681926097   11.3784914364
   10.0650502080    0.9025931204    5.3203453949
    2.9172029932    6.2452540943    8.9753490347
    4.2306442216    8.0504403352    1.8275018199
   11.3784914364   13.3931013091   12.4681926097
    8.9753490347    4.2306442216   13.3931013091
    5.3203453949   11.3784914364    8.0504403352
   12.4681926097   10.0650502080    6.2452540943
    1.8275018199    2.9172029932    0.9025931204
   13.3931013091    8.9753490347    4.2306442216
    8.0504403352    5.3203453949   11.3784914364
    6.2452540943   12.4681926097   10.0650502080
    0.9025931204    1.8275018199    2.9172029932
    4.2306442216   13.3931013091    8.9753490347
   11.3784914364    8.0504403352    5.3203453949
   10.0650502080    6.2452540943   12.4681926097
    2.9172029932    0.9025931204    1.8275018199
    7.6455156482   10.0515510696   12.3173004113
    6.6501787813    2.9037038549    9.1262412330
   13.7980259961    4.2441433599    5.1694531966
    0.4976684335   11.3919905747    1.9783940182
   12.3173004113    7.6455156482   10.0515510696
    9.1262412330    6.6501787813    2.9037038549
    5.1694531966   13.7980259961    4.2441433599
    1.9783940182    0.4976684335   11.3919905747
   10.0515510696   12.3173004113    7.6455156482
    2.9037038549    9.1262412330    6.6501787813
    4.2441433599    5.1694531966   13.7980259961
   11.3919905747    1.9783940182    0.4976684335
    6.6501787813    4.2441433599    1.9783940182
    7.6455156482   11.3919905747    5.1694531966
    0.4976684335   10.0515510696    9.1262412330
   13.7980259961    2.9037038549   12.3173004113
    1.9783940182    6.6501787813    4.2441433599
    5.1694531966    7.6455156482   11.3919905747
    9.1262412330    0.4976684335   10.0515510696
   12.3173004113   13.7980259961    2.9037038549
    4.2441433599    1.9783940182    6.6501787813
   11.3919905747    5.1694531966    7.6455156482
   10.0515510696    9.1262412330    0.4976684335
    2.9037038549   12.3173004113   13.7980259961
    4.9030526449    9.5485037382   12.9422279729
    9.3926417846    2.4006565234    8.5013136714
    2.2447945698    4.7471906914    5.7943807582
   12.0508998597   11.8950379062    1.3534664566
   12.9422279729    4.9030526449    9.5485037382
    8.5013136714    9.3926417846    2.4006565234
    5.7943807582    2.2447945698    4.7471906914
    1.3534664566   12.0508998597   11.8950379062
    9.5485037382   12.9422279729    4.9030526449
    2.4006565234    8.5013136714    9.3926417846
    4.7471906914    5.7943807582    2.2447945698
   11.8950379062    1.3534664566   12.0508998597
    9.3926417846    4.7471906914    1.3534664566
    4.9030526449   11.8950379062    5.7943807582
   12.0508998597    9.5485037382    8.5013136714
    2.2447945698    2.4006565234   12.9422279729
    1.3534664566    9.3926417846    4.7471906914
    5.7943807582    4.9030526449   11.8950379062
    8.5013136714   12.0508998597    9.5485037382
   12.9422279729    2.2447945698    2.4006565234
    4.7471906914    1.3534664566    9.3926417846
   11.8950379062    5.7943807582    4.9030526449
    9.5485037382    8.5013136714   12.0508998597
    2.4006565234   12.9422279729    2.2447945698
    7.6831300506   10.2860574981    1.5934136834
    6.6125643790    3.1382102833    5.5544335314
   13.7604115938    4.0096369315    8.7412608982
    0.5352828358   11.1574841462   12.7022807461
    1.5934136834    7.6831300506   10.2860574981
    5.5544335314    6.6125643790    3.1382102833
    8.7412608982   13.7604115938    4.0096369315
   12.7022807461    0.5352828358   11.1574841462
   10.2860574981    1.5934136834    7.6831300506
    3.1382102833    5.5544335314    6.6125643790
    4.0096369315    8.7412608982   13.7604115938
   11.1574841462   12.7022807461    0.5352828358
    6.6125643790    4.0096369315   12.7022807461
    7.6831300506   11.1574841462    8.7412608982
    0.5352828358   10.2860574981    5.5544335314
   13.7604115938    3.1382102833    1.5934136834
   12.7022807461    6.6125643790    4.0096369315
    8.7412608982    7.6831300506   11.1574841462
    5.5544335314    0.5352828358   10.2860574981
    1.5934136834   13.7604115938    3.1382102833
    4.0096369315   12.7022807461    6.6125643790
   11.1574841462    8.7412608982    7.6831300506
   10.2860574981    5.5544335314    0.5352828358
    3.1382102833    1.5934136834   13.7604115938
    8.0603198037   10.5744565502    0.2752548759
    6.2353746258    3.4266093354    6.8725923389
   13.3832218406    3.7212378793    7.4231020907
    0.9124725889   10.8690850941   14.0204395537
    0.2752548759    8.0603198037   10.5744565502
    6.8725923389    6.2353746258    3.4266093354
    7.4231020907   13.3832218406    3.7212378793
   14.0204395537    0.9124725889   10.8690850941
   10.5744565502    0.2752548759    8.0603198037
    3.4266093354    6.8725923389    6.2353746258
    3.7212378793    7.4231020907   13.3832218406
   10.8690850941   14.0204395537    0.9124725889
    6.2353746258    3.7212378793   14.0204395537
    8.0603198037   10.8690850941    7.4231020907
    0.9124725889   10.5744565502    6.8725923389
   13.3832218406    3.4266093354    0.2752548759
   14.0204395537    6.2353746258    3.7212378793
    7.4231020907    8.0603198037   10.8690850941
    6.8725923389    0.9124725889   10.5744565502
    0.2752548759   13.3832218406    3.4266093354
    3.7212378793   14.0204395537    6.2353746258
   10.8690850941    7.4231020907    8.0603198037
   10.5744565502    6.8725923389    0.9124725889
    3.4266093354    0.2752548759   13.3832218406
    6.2888601081   10.0257231815    1.9131204493
    8.0068343215    2.8778759667    5.2347267655
    0.8589871067    4.2699712481    9.0609676641
   13.4367073229   11.4178184629   12.3825739803
    1.9131204493    6.2888601081   10.0257231815
    5.2347267655    8.0068343215    2.8778759667
    9.0609676641    0.8589871067    4.2699712481
   12.3825739803   13.4367073229   11.4178184629
   10.0257231815    1.9131204493    6.2888601081
    2.8778759667    5.2347267655    8.0068343215
    4.2699712481    9.0609676641    0.8589871067
   11.4178184629   12.3825739803   13.4367073229
    8.0068343215    4.2699712481   12.3825739803
    6.2888601081   11.4178184629    9.0609676641
   13.4367073229   10.0257231815    5.2347267655
    0.8589871067    2.8778759667    1.9131204493
   12.3825739803    8.0068343215    4.2699712481
    9.0609676641    6.2888601081   11.4178184629
    5.2347267655   13.4367073229   10.0257231815
    1.9131204493    0.8589871067    2.8778759667
    4.2699712481   12.3825739803    8.0068343215
   11.4178184629    9.0609676641    6.2888601081
   10.0257231815    5.2347267655   13.4367073229
    2.8778759667    1.9131204493    0.8589871067
    6.8651707292    9.2662442580   11.4597604578
    7.4305237004    2.1183970432    9.9837811865
    0.2826764856    5.0294501716    4.3119132430
   14.0130179439   12.1772973864    2.8359339718
   11.4597604578    6.8651707292    9.2662442580
    9.9837811865    7.4305237004    2.1183970432
    4.3119132430    0.2826764856    5.0294501716
    2.8359339718   14.0130179439   12.1772973864
    9.2662442580   11.4597604578    6.8651707292
    2.1183970432    9.9837811865    7.4305237004
    5.0294501716    4.3119132430    0.2826764856
   12.1772973864    2.8359339718   14.0130179439
    7.4305237004    5.0294501716    2.8359339718
    6.8651707292   12.1772973864    4.3119132430
   14.0130179439    9.2662442580    9.9837811865
    0.2826764856    2.1183970432   11.4597604578
    2.8359339718    7.4305237004    5.0294501716
    4.3119132430    6.8651707292   12.1772973864
    9.9837811865   14.0130179439    9.2662442580
   11.4597604578    0.2826764856    2.1183970432
    5.0294501716    2.8359339718    7.4305237004
   12.1772973864    4.3119132430    6.8651707292
    9.2662442580    9.9837811865   14.0130179439
    2.1183970432   11.4597604578    0.2826764856
    5.4709110796    9.0097060200   11.7791698732
    8.8247833500    1.8618588053    9.6643717711
    1.6769361352    5.2859884095    4.6313226584
   12.6187582944   12.4338356243    2.5165245563
   11.7791698732    5.4709110796    9.0097060200
    9.6643717711    8.8247833500    1.8618588053
    4.6313226584    1.6769361352    5.2859884095
    2.5165245563   12.6187582944   12.4338356243
    9.0097060200   11.7791698732    5.4709110796
    1.8618588053    9.6643717711    8.8247833500
    5.2859884095    4.6313226584    1.6769361352
   12.4338356243    2.5165245563   12.6187582944
    8.8247833500    5.2859884095    2.5165245563
    5.4709110796   12.4338356243    4.6313226584
   12.6187582944    9.0097060200    9.6643717711
    1.6769361352    1.8618588053   11.7791698732
    2.5165245563    8.8247833500    5.2859884095
    4.6313226584    5.4709110796   12.4338356243
    9.6643717711   12.6187582944    9.0097060200
   11.7791698732    1.6769361352    1.8618588053
    5.2859884095    2.5165245563    8.8247833500
   12.4338356243    4.6313226584    5.4709110796
    9.0097060200    9.6643717711   12.6187582944
    1.8618588053   11.7791698732    1.6769361352
