C                                                                               
1
    9.1866651230    0.0000000000    0.0000000000
    0.0000000000   10.2019631655    0.0000000000
    0.0000000000    0.0000000000   14.6488332920
120                                                                             
cartesian
    3.8687710966    1.6546053960    6.8481391292
    3.8687710966    8.5473577695    7.8006941628
    5.3993705594    9.5888353813   14.1289754962
    5.3993705594    0.6131277843    0.5198577959
    8.3806271251    4.4878537985    7.8442744419
    8.3806271251    5.7141093671    6.8045588502
    3.7872945636    0.6131277843    0.5198577959
    3.7872945636    9.5888353813   14.1289754962
    0.8060379979    5.7141093671    6.8045588502
    0.8060379979    4.4878537985    7.8442744419
    6.1340281693    9.8574326675   12.8146235779
    6.1340281693    0.3445304981    1.8342097142
    7.6459695152    4.7564510847    9.1586263602
    7.6459695152    5.4455120808    5.4902069319
    3.0526369537    0.3445304981    1.8342097142
    3.0526369537    9.8574326675   12.8146235779
    1.5406956078    5.4455120808    5.4902069319
    1.5406956078    4.7564510847    9.1586263602
    6.1318141830    8.3324636174   14.6057510733
    6.1318141830    1.8694995481    0.0430822187
    7.6481835015    3.2314820347    7.3674988647
    7.6481835015    6.9704811309    7.2813344273
    3.0548509400    1.8694995481    0.0430822187
    3.0548509400    8.3324636174   14.6057510733
    1.5384816215    6.9704811309    7.2813344273
    1.5384816215    3.2314820347    7.3674988647
    8.4863013340    2.2272721944   12.0280691231
    8.4863013340    7.9746909712    2.6207641689
    5.2936963505    7.3282537772    9.9451808150
    5.2936963505    2.8737093884    4.7036524771
    0.7003637890    7.9746909712    2.6207641689
    0.7003637890    2.2272721944   12.0280691231
    3.8929687725    2.8737093884    4.7036524771
    3.8929687725    7.3282537772    9.9451808150
    0.0000000000    7.9920445105   11.8562822551
    0.0000000000    2.2099186550    2.7925510370
    4.5933325615    2.8910629277   10.1169676830
    4.5933325615    7.3109002378    4.5318656091
    0.0000000000    7.0824986865   12.9186009966
    0.0000000000    3.1194644791    1.7302322955
    4.5933325615    1.9815171037    9.0546489415
    4.5933325615    8.2204460619    5.5941843506
    8.0186173993    8.8093441836   11.5960457316
    8.0186173993    1.3926189819    3.0527875604
    5.7613802852    3.7083626009   10.3772042064
    5.7613802852    6.4936005647    4.2716290856
    1.1680477237    1.3926189819    3.0527875604
    1.1680477237    8.8093441836   11.5960457316
    3.4252848378    6.4936005647    4.2716290856
    3.4252848378    3.7083626009   10.3772042064
    8.0163758530    6.9567900963   13.7657283770
    8.0163758530    3.2451730692    0.8831049150
    5.7636218315    1.8558085136    8.2075215610
    5.7636218315    8.3461546520    6.4413117310
    1.1702892700    3.2451730692    0.8831049150
    1.1702892700    6.9567900963   13.7657283770
    3.4230432915    8.3461546520    6.4413117310
    3.4230432915    1.8558085136    8.2075215610
    7.7612621625    1.0451197126   11.6024326230
    7.7612621625    9.1568434530    3.0464006691
    6.0187355220    6.1461012953   10.3708173151
    6.0187355220    4.0558618702    4.2780159769
    1.4254029605    9.1568434530    3.0464006691
    1.4254029605    1.0451197126   11.6024326230
    3.1679296010    4.0558618702    4.2780159769
    3.1679296010    6.1461012953   10.3708173151
    7.7610141225    7.3631240872    1.5244015389
    7.7610141225    2.8388390783   13.1244317532
    6.0189835619    2.2621425045    5.8000151071
    6.0189835619    7.9398206611    8.8488181849
    1.4256510004    2.8388390783   13.1244317532
    1.4256510004    7.3631240872    1.5244015389
    3.1676815610    7.9398206611    8.8488181849
    3.1676815610    2.2621425045    5.8000151071
    6.5852679734    0.9111271284   12.4349258189
    6.5852679734    9.2908360372    2.2139074731
    7.1947297110    6.0121087111    9.5383241191
    7.1947297110    4.1898544544    5.1105091729
    2.6013971495    9.2908360372    2.2139074731
    2.6013971495    0.9111271284   12.4349258189
    1.9919354119    4.1898544544    5.1105091729
    1.9919354119    6.0121087111    9.5383241191
    6.5841104536    8.1620602267    1.2576023381
    6.5841104536    2.0399029389   13.3912309539
    7.1958872308    3.0610786439    6.0668143079
    7.1958872308    7.1408845217    8.5820189841
    2.6025546693    2.0399029389   13.3912309539
    2.6025546693    8.1620602267    1.2576023381
    1.9907778921    7.1408845217    8.5820189841
    1.9907778921    3.0610786439    6.0668143079
    6.8915330153    8.7022847822   12.4239538428
    6.8915330153    1.4996783834    2.2248794492
    6.8884646692    3.6013031994    9.5492960952
    6.8884646692    6.6006599661    5.0995371968
    2.2951321077    1.4996783834    2.2248794492
    2.2951321077    8.7022847822   12.4239538428
    2.2982004538    6.6006599661    5.0995371968
    2.2982004538    3.6013031994    9.5492960952
    6.8889699357    7.7577972343   13.5278166755
    6.8889699357    2.4441659313    1.1210166165
    6.8910277487    2.6568156515    8.4454332625
    6.8910277487    7.5451475140    6.2034000295
    2.2976951872    2.4441659313    1.1210166165
    2.2976951872    7.7577972343   13.5278166755
    2.2956373743    7.5451475140    6.2034000295
    2.2956373743    2.6568156515    8.4454332625
    8.4616535115   10.1150730453   11.1702334455
    8.4616535115    0.0868901203    3.4785998465
    5.3183441730    5.0140914625   10.8030164925
    5.3183441730    5.1878717031    3.8458167995
    0.7250116115    0.0868901203    3.4785998465
    0.7250116115   10.1150730453   11.1702334455
    3.8683209500    5.1878717031    3.8458167995
    3.8683209500    5.0140914625   10.8030164925
    8.4621036581    6.7555869788    0.4762775168
    8.4621036581    3.4463761868   14.1725557752
    5.3178940264    1.6546053960    6.8481391292
    5.3178940264    8.5473577695    7.8006941628
    0.7245614649    3.4463761868   14.1725557752
    0.7245614649    6.7555869788    0.4762775168
