C                                                                               
1
    8.0964661996    2.8625330767    4.9580527272
    0.0000000000    8.5875992301    4.9580527272
    0.0000000000    0.0000000000    9.9161054544
60                                                                              
cartesian
    6.4597088821    6.8401916762   12.2686965154
    3.8007079352    3.0797964747   12.2686965154
    5.9441744933    6.1281966866    6.9403813686
    0.7978500687    4.8384222957   11.0306806655
    3.8007079352    9.0851046163   11.0306806655
    7.2999196620    5.1695400843    8.6008233108
    4.6396151840    6.1966913781    6.4489391823
    7.2999196620    7.1418969374   10.0926468378
    6.4695541850    8.2900818548   10.4121933361
    7.2999196620    4.8637614385   11.0548462145
    3.8007079352    5.0102973692    6.4489391823
    0.7965465377    6.5863708683    8.7773646943
    6.4695541850    4.8721830108    7.4466927550
    3.4568510157    2.9582246949    7.7740828927
    6.4597088821    3.1300997684    9.7055369551
    3.4568510157    5.2534409288   13.3832717265
    2.1522917063    3.3495787670    8.0791221287
    0.7978500687    7.1336385295   10.1266739537
    7.2986161309    4.3164937773    9.7055369551
    7.2986161309    6.2469946718   11.2412491648
    5.9441744933    2.9464482338   11.0548462145
    1.6367573175    4.2452252913   12.0581280161
    1.6269120146    6.5779492960   12.3855181537
    4.3001384527    4.1089572667   13.0683709237
    0.7965465377    6.2805922225   11.2313875980
    4.2957582645    6.4398349376   13.3832717265
    4.2957582645    8.3703358321    7.5635143934
    1.6269120146    3.1600504520    9.4200175727
    0.7965465377    4.3082353694    9.7395640709
    1.6367573175    8.3200325384   10.1266739537
    3.7963277469    2.1870697342   10.0926468378
    3.7963277469    7.6469536859   12.8918295402
    2.4405825783    3.1457263365   11.7530887801
    2.4370201332    2.5872175079   10.4121933361
    2.4405825783    8.6056102882   11.2313875980
    1.6367573175    4.6099406306    7.5635143934
    6.4695541850    4.0129335946   11.8894302720
    5.9441744933    8.1005535398   11.7530887801
    4.3001384527    9.2630625726    9.7395640709
    5.6558836213    6.0262704713   13.0683709237
    4.6396151840    2.4865994703   11.2412491648
    5.6558836213    8.3044059703    8.0791221287
    5.6594460665    8.8629147989    9.4200175727
    4.3001384527    3.8031786209    6.9403813686
    2.4370201332    7.7236151842   12.3855181537
    2.4405825783    5.4238618355    6.7638399851
    6.4597088821    7.2049070155    7.7740828927
    4.6396151840    8.4919076119   12.0581280161
    2.1522917063    8.5036840730    8.7773646943
    5.6594460665    3.7265171226    7.4466927550
    2.4370201332    6.8643657681    6.9506048733
    3.4568510157    8.9635328365    8.5909617439
    7.2986161309    6.6117100111    8.8015302433
    5.6558836213    2.8445220186    8.6008233108
    3.7963277469    7.3411750401    6.7638399851
    4.2957582645    2.3650276905    8.8015302433
    2.1522917063    5.3219356202   12.8918295402
    1.6269120146    7.4371987122    7.9427806368
    0.7978500687    5.2031376350    8.5909617439
    5.6594460665    4.5857665387   12.8816060355
