C                                                                               
1
    3.1656733903   -1.8277024500   -1.2923807876
    0.0000000000    3.6554048011   -1.2923807876
    0.0000000000    0.0000000000    3.8771422930
8                                                                               
cartesian
    1.5828366951    2.7415535761    0.7299534217
    2.1788411900    0.5697478076   -1.5356986109
    3.1656733903    0.6882066678   -0.2433178582
    2.5696688954    1.4835990017    1.0490629076
    1.5828366951    2.7415535761   -0.7299534916
    0.9868322003    1.2579545435    2.8280793286
    3.1656733903   -0.6882067668    0.2433177883
    0.5960044949    0.3441033493    0.2433178101
