C                                                                               
1
    1.7760593023    0.0000000000    0.0000000000
    0.0000000000    1.7760593023    0.0000000000
    0.0000000000    0.0000000000    1.7760593023
1                                                                               
cartesian
    0.0000000000    0.0000000000    0.0000000000
