C                                                                               
1
    2.1371110458   -1.2338616376    0.0000000000
    0.0000000000    2.4677232752    0.0000000000
    0.0000000000    0.0000000000    8.6850344317
4                                                                               
cartesian
    0.0000000000    0.0000000000    2.1712586079
    0.0000000000    0.0000000000    6.5137758238
    1.4247407043   -0.0000000123    2.1712586079
    0.7123703415    1.2338616499    6.5137758238
