C                                                                               
1
    3.6615916326   -0.4049728274    0.0000000000
    0.0000000000    3.6839186032    0.0000000000
    0.0000000000    0.0000000000    6.2654366296
8                                                                               
cartesian
    1.8307958163   -0.2024864137    0.6827759567
    0.4598702779    3.1703824618    5.0433256224
    0.4598702779    3.1703824618    1.2221110072
    0.0000000000    1.8419593016    5.5826606729
    0.0000000000    1.8419593016    0.6827759567
    1.8307958163   -0.2024864137    5.5826606729
    3.2017213547    0.1085633141    5.0433256224
    3.2017213547    0.1085633141    1.2221110072
