C                                                                               
1
    2.0632817529    0.7294802595    1.2634968725
    0.0000000000    2.1884407784    1.2634968725
    0.0000000000    0.0000000000    2.5269937451
2                                                                               
cartesian
    1.5474613146    2.1884407784    3.7904906176
    1.0316408764    1.4589605189    2.5269937451
