C                                                                               
1
    9.4434986772    0.0000000000   -3.6044438029
    0.0000000000    4.7184390003    0.0000000000
    0.0000000000    0.0000000000   16.1514594299
48                                                                              
cartesian
    0.3674654205    4.3425020914    5.9284124916
    9.0760332567    1.9832825912   -1.4571265796
    9.0760332567    0.3759369089    6.6186031354
    0.3674654205    2.7351564091   14.0041422066
    1.7064118805    4.5794337873    5.6618895228
    7.7370867967    2.2202142872   -1.1906036107
    7.7370867967    0.1390052129    6.8851261042
    1.7064118805    2.4982247131   13.7376192378
    2.6955428189    4.0676011168    6.2122542143
    6.7479558583    1.7083816166   -1.7409683022
    6.7479558583    0.6508378835    6.3347614128
    2.6955428189    3.0100573837   14.2879839292
    2.7118517411    3.1401872128    7.2412086776
    6.7316469361    0.7809677127   13.3815366644
    6.7316469361    1.5782517875    5.3058069494
    2.7118517411    3.9374712876   -0.8345210374
    3.6907175965    2.4897551151    7.9768238345
    5.7527810807    0.1305356149   12.6459215075
    5.7527810807    2.2286838852    4.5701917926
    3.6907175965    4.5879033854   -0.0989058805
    3.5348998683    1.6607395381    8.8875113721
    5.9085988089    4.0199590382   11.7352339699
    5.9085988089    3.0576994622    3.6595042549
    3.5348998683    0.6984799621    0.8117816571
    2.3451890180    1.1677711866    9.3998647254
    7.0983096592    3.5269906868   11.2228806165
    7.0983096592    3.5506678137    3.1471509016
    2.3451890180    1.1914483135    1.3241350105
    1.9853822749    0.2491288608   10.3717112446
    7.4581164023    2.6083483609   10.2510340974
    7.4581164023    4.4693101395    2.1753043824
    1.9853822749    2.1100906394    2.2959815296
    0.8406319217    4.6253536357   10.7160815128
    8.6028667555    2.2661341356    9.9066638292
    8.6028667555    0.0930853646    1.8309341142
    0.8406319217    2.4523048647    2.6403517979
    0.1799364238    3.3303874889    7.0174184205
    9.2635622534    0.9711679888   -2.5461325085
    9.2635622534    1.3880515114    5.5295972065
    0.1799364238    3.7472710115   15.0931481355
    1.3329781688    2.7445696949    7.6671230102
    8.1105205084    0.3853501947   12.9556223318
    8.1105205084    1.9738693054    4.8798926168
    1.3329781688    4.3330888056   -0.4086067047
    1.1529000925    1.7752088682    8.7272488804
    8.2905985847    4.1344283684   11.8954964616
    8.2905985847    2.9432301321    3.8197667467
    1.1529000925    0.5840106319    0.6515191654
