K-Path Generated by VASPKIT.
   101
Line-Mode
Reciprocal
    -0.00000000    0.50000000    0.00000000     Y
    0.00000000    0.00000000    0.00000000      G
    
    0.00000000    0.00000000    0.00000000      G
    0.00000000    0.50000000    0.00000000      Y
