K-Path Generated by VASPKIT.
   20
Line-Mode
Reciprocal
    -0.50000000    0.00000000    0.00000000     Y
    0.00000000    0.00000000    0.00000000      G

    0.00000000    0.00000000    0.00000000      G
    0.50000000    0.00000000    0.00000000      Y

