TaTbHex
1.0
4.0000000000         0.0000000000         0.0000000000
-2.0000000000         3.4641016151         0.0000000000
0.0000000000         0.0000000000         3.0000000000
C Si
3  3
Direct
   0.822222222222222  0.500000000  0.000000000 C s I
0.500000000    0.822222222222222    0.000000000 C s I
   0.177777777777778            0.177777777777778          0.000000000 C s I
   0.177777777777778         0.500000000  0.000000000 Si s I
0.5            0.177777777777778          0.000000000 Si s I
   0.822222222222222            0.822222222222222          0.000000000 Si s I
