TaTbHex
1.0
4.0000000000         0.0000000000         0.0000000000
-2.0000000000         3.4641016151         0.0000000000
0.0000000000         0.0000000000         3.0000000000
C Si
3  3
Direct
0.8000000   0.500000000  0.000000000 C s I
0.500000000 0.8000000    0.000000000 C s I
0.2         0.2          0.000000000 C s I
0.2         0.500000000  0.500000000 C s I
0.5         0.2          0.500000000 C s I
0.8         0.8          0.500000000 C s I
