POSCAR Gen by MATLAB
1
  21.000000  0.000000  0.000000
  0.000000  10.000000  0.000000
  0.000000  0.000000  10.000000
N C 
  21 21 
Direct
  0.000000  0.500000  0.500000  
  0.047619  0.500000  0.500000  
  0.095238  0.500000  0.500000  
  0.142857  0.500000  0.500000  
  0.190476  0.500000  0.500000  
  0.238095  0.500000  0.500000  
  0.285714  0.500000  0.500000  
  0.333333  0.500000  0.500000  
  0.380952  0.500000  0.500000  
  0.428571  0.500000  0.500000  
  0.476190  0.500000  0.500000  
  0.523810  0.500000  0.500000  
  0.571429  0.500000  0.500000  
  0.619048  0.500000  0.500000  
  0.666667  0.500000  0.500000  
  0.714286  0.500000  0.500000  
  0.761905  0.500000  0.500000  
  0.809524  0.500000  0.500000  
  0.857143  0.500000  0.500000  
  0.904762  0.500000  0.500000  
  0.952381  0.500000  0.500000  
  0.019048  0.500000  0.500000  
  0.066667  0.500000  0.500000  
  0.114286  0.500000  0.500000  
  0.161905  0.500000  0.500000  
  0.209524  0.500000  0.500000  
  0.257143  0.500000  0.500000  
  0.304762  0.500000  0.500000  
  0.352381  0.500000  0.500000  
  0.400000  0.500000  0.500000  
  0.447619  0.500000  0.500000  
  0.495238  0.500000  0.500000  
  0.542857  0.500000  0.500000  
  0.590476  0.500000  0.500000  
  0.638095  0.500000  0.500000  
  0.685714  0.500000  0.500000  
  0.733333  0.500000  0.500000  
  0.780952  0.500000  0.500000  
  0.828571  0.500000  0.500000  
  0.876190  0.500000  0.500000  
  0.923810  0.500000  0.500000  
  0.971429  0.500000  0.500000  
  