K-Path Generated by VASPKIT.
   50
Line-Mode
Reciprocal
   0.0000000000   0.0000000000   0.0000000000     GAMMA          
   0.5000000000   0.0000000000   0.0000000000     X              
 
   0.5000000000   0.0000000000   0.0000000000     X                           
   0.0000000000   0.0000000000   0.0000000000     G       
 
