K-Path Generated by VASPKIT.
   61
Line-Mode
Reciprocal
   -0.5000000000   0.0   0.0000000000     -X
   0.0000000000   0.0000000000   0.0000000000     Γ

   0.0000000000   0.0000000000   0.0000000000     Γ
0.5000000000   0.0   0.0000000000     X