graphene
1.0
        1         0.0000000000         0.0000000000
       0   1        0.0000000000
        0.0000000000         0.0000000000       1
    C
    2
Direct
     0.5         0.5         0.50000000 C p z
     0.5        0.5    0.50000000 C p z
