K-Path Generated by VASPKIT.
   60
Line-Mode
Reciprocal
   0.5000000000   0.5000000000   0.1145     M
   0.5000000000   0.0000000000    0.1145     X

   0.5000000000   0.0000000000    0.1145     X
   0.0000000000   0.0000000000    0.1145     GAMMA

   0.0000000000   0.0000000000    0.1145     GAMMA
   0.0000000000   -0.5000000000    0.11450     X'

   0.0000000000   -0.5000000000    0.1145     X'
   -0.5000000000   -0.5000000000    0.1145     M'

