graphene
1.0
4.9120         0.0000000000         0.0000000000
0.0000000000         4.9120         0.0000000000
0.0000000000         0.0000000000        20.0000000000
C
4
Direct
     0.25         0.75         0.50000000 C p z
     0.75         0.75         0.50000000 C p z
     0.25         0.25         0.50000000 C p z
     0.75         0.25         0.50000000 C p z
