K-Path Generated by VASPKIT.
   60
Line-Mode
Reciprocal
   0.0000000000   0.0000000000   0.5000000000     Z
   0.0000000000   0.0000000000   0.0000000000     Γ

   0.0000000000   0.0000000000   0.0000000000     Γ
   0.0000000000   0.5000000000   0.0000000000     X

   0.0000000000   0.5000000000   0.0000000000     X
   0.5000000000   0.5000000000   0.0000000000     M

   0.5000000000   0.5000000000   0.0000000000     M
   0.0000000000   0.0000000000   0.0000000000     Γ