Cd24 As16
3.0
1 0.000000 0.000000
0.000000 1 0.000000
0.000000 0.000000 1
Cd As
2 2
direct
0.500000 0.5 0.5 Cd s I 1
0.500000 0.5 0.5 Cd p z 1
0.500000 0.5 0.5 Cd s I -1
0.500000 0.5 0.5 Cd p z -1
