PARCHG Gen by vasplib. 01-May-2022
1
  1.000000  0.000000  0.000000
  0.000000  30.000000  0.000000
  0.000000  0.000000  1.000000
Cd 
  2 
Direct
  0.500000  0.500000  0.500000  
  0.500000  0.500000  0.500000  
  