PARCHG Gen by vasplib. 06-Mar-2022
1
  3.684000  -2.126958  0.000000
  0.000000  95.078339  0.000000
  0.000000  0.000000  20.000000
C 
  12 
Direct
  0.000000  0.333333  0.250000  
  0.333333  0.333333  0.250000  
  0.000000  0.333333  0.250000  
  0.333333  0.333333  0.250000  
  0.666667  0.666667  0.250000  
  0.000000  0.666667  0.250000  
  0.666667  0.666667  0.250000  
  0.000000  0.666667  0.250000  
  0.333333  0.000000  0.250000  
  0.666667  0.000000  0.250000  
  0.333333  0.000000  0.250000  
  0.666667  0.000000  0.250000  
  