graphene
1.0
        2.4560000896         0.0000000000         0.0000000000
       -1.2280000448         2.1269584693         0.0000000000
        0.0000000000         0.0000000000        20.0000000000
    C
    2
Direct
     0.333333333         0.666666667         0.250000000 C p z
     0.666666667         0.333333333         0.250000000 C p z
