      generated by phonopy
    1.0
            3.3650007248         0.0000000000         0.0000000000
           -1.6825003624         2.9141761114         0.0000000000
            1.6825001801         0.9713919319         5.5595858205
       Na   Tm    O
        1    1    2
    Direct
         0.000000000         0.500000000         0.500000000
         0.000000000         0.000000000         0.000000000
         0.472423971         0.736212015         0.791364074
         0.527576089         0.263788044         0.208635867