POSCAR Gen by MATLAB
1
  5.047500  2.914176  0.000000
  0.000000  5.828352  0.000000
  1.682500  0.971392  5.559586
Tm Na O 
  3 3 6 
Direct
  0.000000  0.000000  0.000000  
  0.333333  0.333333  0.000000  
  0.666667  0.666667  0.000000  
  0.833333  0.333333  0.500000  
  0.166667  0.666667  0.500000  
  0.500000  0.000000  0.500000  
  0.069545  0.333333  0.791364  
  0.402879  0.666667  0.791364  
  0.736212  0.000000  0.791364  
  0.263788  0.000000  0.208636  
  0.597121  0.333333  0.208636  
  0.930455  0.666667  0.208636  
  