generated by phonopy
1.0
2.0690000000000000	1.1945377069533354	9.5466666571200012
-2.0690000000000000	1.1945377069533354	9.5466666571200012
0.0000000000000000	-2.3890754139066708	9.5466666571200012
Bi Se
2  2
Direct
0.5	0.5	0.5 Bi p z 1
0.5	0.5	0.5 Bi p z -1
0.5  0.5  0.5 Se p z 1
0.5  0.5  0.5 Se p z -1
