graphene
 2.4560000896
        1         0.0000000000         0.0000000000
       -0.5         0.866025403784439        0.0000000000
        0.0000000000         0.0000000000        10.0000000000
    C
    4
Direct
     0.333333333         0.666666667         0.50000000 C p z 0.5
     0.666666667         0.333333333         0.50000000 C p z 0.5
     0.333333333         0.666666667         0.50000000 C p z -0.5
     0.666666667         0.333333333         0.50000000 C p z -0.5
