POSCAR Gen by HR class
1
  6.530800  0.000000  0.000000
  -70.307999  121.777026  0.000000
  0.000000  0.000000  20.000000
C 
  560 
Direct
  0.809570  0.037770  0.427170  
  0.809570  0.084214  0.427170  
  0.809570  0.130658  0.427170  
  0.809570  0.177103  0.427170  
  0.809570  0.223547  0.427170  
  0.809570  0.269991  0.427170  
  0.809570  0.316435  0.427170  
  0.809570  0.362879  0.427170  
  0.809570  0.409324  0.427170  
  0.809570  0.455768  0.427170  
  0.809570  0.502212  0.427170  
  0.809570  0.548656  0.427170  
  0.809570  0.595101  0.427170  
  0.809570  0.641545  0.427170  
  0.809570  0.687989  0.427170  
  0.809570  0.734433  0.427170  
  0.809570  0.780877  0.427170  
  0.809570  0.827322  0.427170  
  0.809570  0.873766  0.427170  
  0.809570  0.920210  0.427170  
  0.952370  0.070946  0.427170  
  0.952370  0.117390  0.427170  
  0.952370  0.163834  0.427170  
  0.952370  0.210278  0.427170  
  0.952370  0.256722  0.427170  
  0.952370  0.303167  0.427170  
  0.952370  0.349611  0.427170  
  0.952370  0.396055  0.427170  
  0.952370  0.442499  0.427170  
  0.952370  0.488943  0.427170  
  0.952370  0.535388  0.427170  
  0.952370  0.581832  0.427170  
  0.952370  0.628276  0.427170  
  0.952370  0.674720  0.427170  
  0.952370  0.721165  0.427170  
  0.952370  0.767609  0.427170  
  0.952370  0.814053  0.427170  
  0.952370  0.860497  0.427170  
  0.952370  0.906941  0.427170  
  0.952370  0.953386  0.427170  
  0.238060  0.044402  0.427170  
  0.238060  0.090846  0.427170  
  0.238060  0.137291  0.427170  
  0.238060  0.183735  0.427170  
  0.238060  0.230179  0.427170  
  0.238060  0.276623  0.427170  
  0.238060  0.323068  0.427170  
  0.238060  0.369512  0.427170  
  0.238060  0.415956  0.427170  
  0.238060  0.462400  0.427170  
  0.238060  0.508844  0.427170  
  0.238060  0.555289  0.427170  
  0.238060  0.601733  0.427170  
  0.238060  0.648177  0.427170  
  0.238060  0.694621  0.427170  
  0.238060  0.741065  0.427170  
  0.238060  0.787510  0.427170  
  0.238060  0.833954  0.427170  
  0.238060  0.880398  0.427170  
  0.238060  0.926842  0.427170  
  0.190430  0.079790  0.427170  
  0.190430  0.126234  0.427170  
  0.190430  0.172678  0.427170  
  0.190430  0.219123  0.427170  
  0.190430  0.265567  0.427170  
  0.190430  0.312011  0.427170  
  0.190430  0.358455  0.427170  
  0.190430  0.404899  0.427170  
  0.190430  0.451344  0.427170  
  0.190430  0.497788  0.427170  
  0.190430  0.544232  0.427170  
  0.190430  0.590676  0.427170  
  0.190430  0.637121  0.427170  
  0.190430  0.683565  0.427170  
  0.190430  0.730009  0.427170  
  0.190430  0.776453  0.427170  
  0.190430  0.822897  0.427170  
  0.190430  0.869342  0.427170  
  0.190430  0.915786  0.427170  
  0.190430  0.962230  0.427170  
  0.047630  0.046614  0.427170  
  0.047630  0.093059  0.427170  
  0.047630  0.139503  0.427170  
  0.047630  0.185947  0.427170  
  0.047630  0.232391  0.427170  
  0.047630  0.278835  0.427170  
  0.047630  0.325280  0.427170  
  0.047630  0.371724  0.427170  
  0.047630  0.418168  0.427170  
  0.047630  0.464612  0.427170  
  0.047630  0.511057  0.427170  
  0.047630  0.557501  0.427170  
  0.047630  0.603945  0.427170  
  0.047630  0.650389  0.427170  
  0.047630  0.696833  0.427170  
  0.047630  0.743278  0.427170  
  0.047630  0.789722  0.427170  
  0.047630  0.836166  0.427170  
  0.047630  0.882610  0.427170  
  0.047630  0.929054  0.427170  
  0.761940  0.073158  0.427170  
  0.761940  0.119602  0.427170  
  0.761940  0.166046  0.427170  
  0.761940  0.212490  0.427170  
  0.761940  0.258935  0.427170  
  0.761940  0.305379  0.427170  
  0.761940  0.351823  0.427170  
  0.761940  0.398267  0.427170  
  0.761940  0.444711  0.427170  
  0.761940  0.491156  0.427170  
  0.761940  0.537600  0.427170  
  0.761940  0.584044  0.427170  
  0.761940  0.630488  0.427170  
  0.761940  0.676932  0.427170  
  0.761940  0.723377  0.427170  
  0.761940  0.769821  0.427170  
  0.761940  0.816265  0.427170  
  0.761940  0.862709  0.427170  
  0.761940  0.909154  0.427170  
  0.761940  0.955598  0.427170  
  0.047630  0.073158  0.572830  
  0.047630  0.119602  0.572830  
  0.047630  0.166046  0.572830  
  0.047630  0.212490  0.572830  
  0.047630  0.258935  0.572830  
  0.047630  0.305379  0.572830  
  0.047630  0.351823  0.572830  
  0.047630  0.398267  0.572830  
  0.047630  0.444711  0.572830  
  0.047630  0.491156  0.572830  
  0.047630  0.537600  0.572830  
  0.047630  0.584044  0.572830  
  0.047630  0.630488  0.572830  
  0.047630  0.676932  0.572830  
  0.047630  0.723377  0.572830  
  0.047630  0.769821  0.572830  
  0.047630  0.816265  0.572830  
  0.047630  0.862709  0.572830  
  0.047630  0.909154  0.572830  
  0.047630  0.955598  0.572830  
  0.761940  0.079790  0.572830  
  0.761940  0.126234  0.572830  
  0.761940  0.172678  0.572830  
  0.761940  0.219123  0.572830  
  0.761940  0.265567  0.572830  
  0.761940  0.312011  0.572830  
  0.761940  0.358455  0.572830  
  0.761940  0.404899  0.572830  
  0.761940  0.451344  0.572830  
  0.761940  0.497788  0.572830  
  0.761940  0.544232  0.572830  
  0.761940  0.590676  0.572830  
  0.761940  0.637121  0.572830  
  0.761940  0.683565  0.572830  
  0.761940  0.730009  0.572830  
  0.761940  0.776453  0.572830  
  0.761940  0.822897  0.572830  
  0.761940  0.869342  0.572830  
  0.761940  0.915786  0.572830  
  0.761940  0.962230  0.572830  
  0.190430  0.046614  0.572830  
  0.190430  0.093059  0.572830  
  0.190430  0.139503  0.572830  
  0.190430  0.185947  0.572830  
  0.190430  0.232391  0.572830  
  0.190430  0.278835  0.572830  
  0.190430  0.325280  0.572830  
  0.190430  0.371724  0.572830  
  0.190430  0.418168  0.572830  
  0.190430  0.464612  0.572830  
  0.190430  0.511057  0.572830  
  0.190430  0.557501  0.572830  
  0.190430  0.603945  0.572830  
  0.190430  0.650389  0.572830  
  0.190430  0.696833  0.572830  
  0.190430  0.743278  0.572830  
  0.190430  0.789722  0.572830  
  0.190430  0.836166  0.572830  
  0.190430  0.882610  0.572830  
  0.190430  0.929054  0.572830  
  0.952370  0.044402  0.572830  
  0.952370  0.090846  0.572830  
  0.952370  0.137291  0.572830  
  0.952370  0.183735  0.572830  
  0.952370  0.230179  0.572830  
  0.952370  0.276623  0.572830  
  0.952370  0.323068  0.572830  
  0.952370  0.369512  0.572830  
  0.952370  0.415956  0.572830  
  0.952370  0.462400  0.572830  
  0.952370  0.508844  0.572830  
  0.952370  0.555289  0.572830  
  0.952370  0.601733  0.572830  
  0.952370  0.648177  0.572830  
  0.952370  0.694621  0.572830  
  0.952370  0.741065  0.572830  
  0.952370  0.787510  0.572830  
  0.952370  0.833954  0.572830  
  0.952370  0.880398  0.572830  
  0.952370  0.926842  0.572830  
  0.238060  0.037770  0.572830  
  0.238060  0.084214  0.572830  
  0.238060  0.130658  0.572830  
  0.238060  0.177103  0.572830  
  0.238060  0.223547  0.572830  
  0.238060  0.269991  0.572830  
  0.238060  0.316435  0.572830  
  0.238060  0.362879  0.572830  
  0.238060  0.409324  0.572830  
  0.238060  0.455768  0.572830  
  0.238060  0.502212  0.572830  
  0.238060  0.548656  0.572830  
  0.238060  0.595101  0.572830  
  0.238060  0.641545  0.572830  
  0.238060  0.687989  0.572830  
  0.238060  0.734433  0.572830  
  0.238060  0.780877  0.572830  
  0.238060  0.827322  0.572830  
  0.238060  0.873766  0.572830  
  0.238060  0.920210  0.572830  
  0.809570  0.070946  0.572830  
  0.809570  0.117390  0.572830  
  0.809570  0.163834  0.572830  
  0.809570  0.210278  0.572830  
  0.809570  0.256722  0.572830  
  0.809570  0.303167  0.572830  
  0.809570  0.349611  0.572830  
  0.809570  0.396055  0.572830  
  0.809570  0.442499  0.572830  
  0.809570  0.488943  0.572830  
  0.809570  0.535388  0.572830  
  0.809570  0.581832  0.572830  
  0.809570  0.628276  0.572830  
  0.809570  0.674720  0.572830  
  0.809570  0.721165  0.572830  
  0.809570  0.767609  0.572830  
  0.809570  0.814053  0.572830  
  0.809570  0.860497  0.572830  
  0.809570  0.906941  0.572830  
  0.809570  0.953386  0.572830  
  0.619070  0.039981  0.427170  
  0.619070  0.086425  0.427170  
  0.619070  0.132870  0.427170  
  0.619070  0.179314  0.427170  
  0.619070  0.225758  0.427170  
  0.619070  0.272202  0.427170  
  0.619070  0.318646  0.427170  
  0.619070  0.365091  0.427170  
  0.619070  0.411535  0.427170  
  0.619070  0.457979  0.427170  
  0.619070  0.504423  0.427170  
  0.619070  0.550868  0.427170  
  0.619070  0.597312  0.427170  
  0.619070  0.643756  0.427170  
  0.619070  0.690200  0.427170  
  0.619070  0.736644  0.427170  
  0.619070  0.783089  0.427170  
  0.619070  0.829533  0.427170  
  0.619070  0.875977  0.427170  
  0.619070  0.922421  0.427170  
  0.904760  0.059887  0.427170  
  0.904760  0.106331  0.427170  
  0.904760  0.152775  0.427170  
  0.904760  0.199219  0.427170  
  0.904760  0.245664  0.427170  
  0.904760  0.292108  0.427170  
  0.904760  0.338552  0.427170  
  0.904760  0.384996  0.427170  
  0.904760  0.431440  0.427170  
  0.904760  0.477885  0.427170  
  0.904760  0.524329  0.427170  
  0.904760  0.570773  0.427170  
  0.904760  0.617217  0.427170  
  0.904760  0.663662  0.427170  
  0.904760  0.710106  0.427170  
  0.904760  0.756550  0.427170  
  0.904760  0.802994  0.427170  
  0.904760  0.849438  0.427170  
  0.904760  0.895883  0.427170  
  0.904760  0.942327  0.427170  
  0.476170  0.053250  0.427170  
  0.476170  0.099694  0.427170  
  0.476170  0.146138  0.427170  
  0.476170  0.192582  0.427170  
  0.476170  0.239027  0.427170  
  0.476170  0.285471  0.427170  
  0.476170  0.331915  0.427170  
  0.476170  0.378359  0.427170  
  0.476170  0.424804  0.427170  
  0.476170  0.471248  0.427170  
  0.476170  0.517692  0.427170  
  0.476170  0.564136  0.427170  
  0.476170  0.610580  0.427170  
  0.476170  0.657025  0.427170  
  0.476170  0.703469  0.427170  
  0.476170  0.749913  0.427170  
  0.476170  0.796357  0.427170  
  0.476170  0.842802  0.427170  
  0.476170  0.889246  0.427170  
  0.476170  0.935690  0.427170  
  0.380930  0.077579  0.427170  
  0.380930  0.124023  0.427170  
  0.380930  0.170467  0.427170  
  0.380930  0.216911  0.427170  
  0.380930  0.263356  0.427170  
  0.380930  0.309800  0.427170  
  0.380930  0.356244  0.427170  
  0.380930  0.402688  0.427170  
  0.380930  0.449132  0.427170  
  0.380930  0.495577  0.427170  
  0.380930  0.542021  0.427170  
  0.380930  0.588465  0.427170  
  0.380930  0.634909  0.427170  
  0.380930  0.681354  0.427170  
  0.380930  0.727798  0.427170  
  0.380930  0.774242  0.427170  
  0.380930  0.820686  0.427170  
  0.380930  0.867130  0.427170  
  0.380930  0.913575  0.427170  
  0.380930  0.960019  0.427170  
  0.095240  0.057673  0.427170  
  0.095240  0.104117  0.427170  
  0.095240  0.150562  0.427170  
  0.095240  0.197006  0.427170  
  0.095240  0.243450  0.427170  
  0.095240  0.289894  0.427170  
  0.095240  0.336338  0.427170  
  0.095240  0.382783  0.427170  
  0.095240  0.429227  0.427170  
  0.095240  0.475671  0.427170  
  0.095240  0.522115  0.427170  
  0.095240  0.568560  0.427170  
  0.095240  0.615004  0.427170  
  0.095240  0.661448  0.427170  
  0.095240  0.707892  0.427170  
  0.095240  0.754336  0.427170  
  0.095240  0.800781  0.427170  
  0.095240  0.847225  0.427170  
  0.095240  0.893669  0.427170  
  0.095240  0.940113  0.427170  
  0.523830  0.064310  0.427170  
  0.523830  0.110754  0.427170  
  0.523830  0.157198  0.427170  
  0.523830  0.203643  0.427170  
  0.523830  0.250087  0.427170  
  0.523830  0.296531  0.427170  
  0.523830  0.342975  0.427170  
  0.523830  0.389420  0.427170  
  0.523830  0.435864  0.427170  
  0.523830  0.482308  0.427170  
  0.523830  0.528752  0.427170  
  0.523830  0.575196  0.427170  
  0.523830  0.621641  0.427170  
  0.523830  0.668085  0.427170  
  0.523830  0.714529  0.427170  
  0.523830  0.760973  0.427170  
  0.523830  0.807418  0.427170  
  0.523830  0.853862  0.427170  
  0.523830  0.900306  0.427170  
  0.523830  0.946750  0.427170  
  0.095240  0.064310  0.572830  
  0.095240  0.110754  0.572830  
  0.095240  0.157198  0.572830  
  0.095240  0.203643  0.572830  
  0.095240  0.250087  0.572830  
  0.095240  0.296531  0.572830  
  0.095240  0.342975  0.572830  
  0.095240  0.389420  0.572830  
  0.095240  0.435864  0.572830  
  0.095240  0.482308  0.572830  
  0.095240  0.528752  0.572830  
  0.095240  0.575196  0.572830  
  0.095240  0.621641  0.572830  
  0.095240  0.668085  0.572830  
  0.095240  0.714529  0.572830  
  0.095240  0.760973  0.572830  
  0.095240  0.807418  0.572830  
  0.095240  0.853862  0.572830  
  0.095240  0.900306  0.572830  
  0.095240  0.946750  0.572830  
  0.523830  0.077579  0.572830  
  0.523830  0.124023  0.572830  
  0.523830  0.170467  0.572830  
  0.523830  0.216911  0.572830  
  0.523830  0.263356  0.572830  
  0.523830  0.309800  0.572830  
  0.523830  0.356244  0.572830  
  0.523830  0.402688  0.572830  
  0.523830  0.449132  0.572830  
  0.523830  0.495577  0.572830  
  0.523830  0.542021  0.572830  
  0.523830  0.588465  0.572830  
  0.523830  0.634909  0.572830  
  0.523830  0.681354  0.572830  
  0.523830  0.727798  0.572830  
  0.523830  0.774242  0.572830  
  0.523830  0.820686  0.572830  
  0.523830  0.867130  0.572830  
  0.523830  0.913575  0.572830  
  0.523830  0.960019  0.572830  
  0.380930  0.057673  0.572830  
  0.380930  0.104117  0.572830  
  0.380930  0.150562  0.572830  
  0.380930  0.197006  0.572830  
  0.380930  0.243450  0.572830  
  0.380930  0.289894  0.572830  
  0.380930  0.336338  0.572830  
  0.380930  0.382783  0.572830  
  0.380930  0.429227  0.572830  
  0.380930  0.475671  0.572830  
  0.380930  0.522115  0.572830  
  0.380930  0.568560  0.572830  
  0.380930  0.615004  0.572830  
  0.380930  0.661448  0.572830  
  0.380930  0.707892  0.572830  
  0.380930  0.754336  0.572830  
  0.380930  0.800781  0.572830  
  0.380930  0.847225  0.572830  
  0.380930  0.893669  0.572830  
  0.380930  0.940113  0.572830  
  0.904760  0.053250  0.572830  
  0.904760  0.099694  0.572830  
  0.904760  0.146138  0.572830  
  0.904760  0.192582  0.572830  
  0.904760  0.239027  0.572830  
  0.904760  0.285471  0.572830  
  0.904760  0.331915  0.572830  
  0.904760  0.378359  0.572830  
  0.904760  0.424804  0.572830  
  0.904760  0.471248  0.572830  
  0.904760  0.517692  0.572830  
  0.904760  0.564136  0.572830  
  0.904760  0.610580  0.572830  
  0.904760  0.657025  0.572830  
  0.904760  0.703469  0.572830  
  0.904760  0.749913  0.572830  
  0.904760  0.796357  0.572830  
  0.904760  0.842802  0.572830  
  0.904760  0.889246  0.572830  
  0.904760  0.935690  0.572830  
  0.476170  0.039981  0.572830  
  0.476170  0.086425  0.572830  
  0.476170  0.132870  0.572830  
  0.476170  0.179314  0.572830  
  0.476170  0.225758  0.572830  
  0.476170  0.272202  0.572830  
  0.476170  0.318646  0.572830  
  0.476170  0.365091  0.572830  
  0.476170  0.411535  0.572830  
  0.476170  0.457979  0.572830  
  0.476170  0.504423  0.572830  
  0.476170  0.550868  0.572830  
  0.476170  0.597312  0.572830  
  0.476170  0.643756  0.572830  
  0.476170  0.690200  0.572830  
  0.476170  0.736644  0.572830  
  0.476170  0.783089  0.572830  
  0.476170  0.829533  0.572830  
  0.476170  0.875977  0.572830  
  0.476170  0.922421  0.572830  
  0.619070  0.059887  0.572830  
  0.619070  0.106331  0.572830  
  0.619070  0.152775  0.572830  
  0.619070  0.199219  0.572830  
  0.619070  0.245664  0.572830  
  0.619070  0.292108  0.572830  
  0.619070  0.338552  0.572830  
  0.619070  0.384996  0.572830  
  0.619070  0.431440  0.572830  
  0.619070  0.477885  0.572830  
  0.619070  0.524329  0.572830  
  0.619070  0.570773  0.572830  
  0.619070  0.617217  0.572830  
  0.619070  0.663662  0.572830  
  0.619070  0.710106  0.572830  
  0.619070  0.756550  0.572830  
  0.619070  0.802994  0.572830  
  0.619070  0.849438  0.572830  
  0.619070  0.895883  0.572830  
  0.619070  0.942327  0.572830  
  0.666667  0.051039  0.427170  
  0.666667  0.097483  0.427170  
  0.666667  0.143928  0.427170  
  0.666667  0.190372  0.427170  
  0.666667  0.236816  0.427170  
  0.666667  0.283260  0.427170  
  0.666667  0.329705  0.427170  
  0.666667  0.376149  0.427170  
  0.666667  0.422593  0.427170  
  0.666667  0.469037  0.427170  
  0.666667  0.515481  0.427170  
  0.666667  0.561926  0.427170  
  0.666667  0.608370  0.427170  
  0.666667  0.654814  0.427170  
  0.666667  0.701258  0.427170  
  0.666667  0.747702  0.427170  
  0.666667  0.794147  0.427170  
  0.666667  0.840591  0.427170  
  0.666667  0.887035  0.427170  
  0.666667  0.933479  0.427170  
  0.333333  0.066521  0.427170  
  0.333333  0.112965  0.427170  
  0.333333  0.159409  0.427170  
  0.333333  0.205853  0.427170  
  0.333333  0.252298  0.427170  
  0.333333  0.298742  0.427170  
  0.333333  0.345186  0.427170  
  0.333333  0.391630  0.427170  
  0.333333  0.438074  0.427170  
  0.333333  0.484519  0.427170  
  0.333333  0.530963  0.427170  
  0.333333  0.577407  0.427170  
  0.333333  0.623851  0.427170  
  0.333333  0.670295  0.427170  
  0.333333  0.716740  0.427170  
  0.333333  0.763184  0.427170  
  0.333333  0.809628  0.427170  
  0.333333  0.856072  0.427170  
  0.333333  0.902517  0.427170  
  0.333333  0.948961  0.427170  
  0.333333  0.066521  0.572830  
  0.333333  0.112965  0.572830  
  0.333333  0.159409  0.572830  
  0.333333  0.205853  0.572830  
  0.333333  0.252298  0.572830  
  0.333333  0.298742  0.572830  
  0.333333  0.345186  0.572830  
  0.333333  0.391630  0.572830  
  0.333333  0.438074  0.572830  
  0.333333  0.484519  0.572830  
  0.333333  0.530963  0.572830  
  0.333333  0.577407  0.572830  
  0.333333  0.623851  0.572830  
  0.333333  0.670295  0.572830  
  0.333333  0.716740  0.572830  
  0.333333  0.763184  0.572830  
  0.333333  0.809628  0.572830  
  0.333333  0.856072  0.572830  
  0.333333  0.902517  0.572830  
  0.333333  0.948961  0.572830  
  0.666667  0.051039  0.572830  
  0.666667  0.097483  0.572830  
  0.666667  0.143928  0.572830  
  0.666667  0.190372  0.572830  
  0.666667  0.236816  0.572830  
  0.666667  0.283260  0.572830  
  0.666667  0.329705  0.572830  
  0.666667  0.376149  0.572830  
  0.666667  0.422593  0.572830  
  0.666667  0.469037  0.572830  
  0.666667  0.515481  0.572830  
  0.666667  0.561926  0.572830  
  0.666667  0.608370  0.572830  
  0.666667  0.654814  0.572830  
  0.666667  0.701258  0.572830  
  0.666667  0.747702  0.572830  
  0.666667  0.794147  0.572830  
  0.666667  0.840591  0.572830  
  0.666667  0.887035  0.572830  
  0.666667  0.933479  0.572830  
  