POSCAR
1.0
        6.5307998657         0.0000000000         0.0000000000
       -3.2653999329         5.6558385907         0.0000000000
        0.0000000000         0.0000000000         20.0000000000
    C
   28
Direct
  0.8095700130000003  0.0476298940000001  0.4271699660000000 C p z 
  0.9523701059999999  0.7619401190000001  0.4271699660000000 C p z
  0.2380598809999998  0.1904299869999997  0.4271699660000000 C p z
  0.1904299869999997  0.9523701059999999  0.4271699660000000 C p z
  0.0476298940000001  0.2380598809999998  0.4271699660000000 C p z
  0.7619401190000002  0.8095700130000003  0.4271699660000000 C p z
  0.0476298940000000  0.8095700130000003  0.5728300340000000 C p z
  0.7619401190000002  0.9523701059999999  0.5728300340000000 C p z
  0.1904299869999997  0.2380598809999998  0.5728300340000000 C p z
  0.9523701059999999  0.1904299869999997  0.5728300340000000 C p z
  0.2380598809999998  0.0476298940000001  0.5728300340000000 C p z
  0.8095700130000003  0.7619401190000001  0.5728300340000000 C p z
  0.6190698610000003  0.0952398940000000  0.4271699660000000 C p z
  0.9047601059999999  0.5238299670000002  0.4271699660000000 C p z
  0.4761700329999998  0.3809301389999998  0.4271699660000000 C p z
  0.3809301389999997  0.9047601060000000  0.4271699660000000 C p z
  0.0952398940000000  0.4761700329999998  0.4271699660000000 C p z
  0.5238299670000002  0.6190698610000002  0.4271699660000000 C p z
  0.0952398939999999  0.6190698610000002  0.5728300340000000 C p z
  0.5238299670000003  0.9047601060000000  0.5728300340000000 C p z
  0.3809301389999998  0.4761700329999998  0.5728300340000000 C p z
  0.9047601060000000  0.3809301389999998  0.5728300340000000 C p z
  0.4761700329999997  0.0952398940000000  0.5728300340000000 C p z
  0.6190698610000003  0.5238299670000002  0.5728300340000000 C p z
  0.6666666666666667  0.3333333333333334  0.4271699660000000 C p z
  0.3333333333333333  0.6666666666666665  0.4271699660000000 C p z
  0.3333333333333333  0.6666666666666667  0.5728300340000000 C p z
  0.6666666666666667  0.3333333333333334  0.5728300340000000 C p z