generated by phonopy
   1.0
     2.4604399204208875    0.0000000000000000    0.0000000000000000
    -1.2302199602104438    2.1308034755698513    0.0000000000000000
     0.0000000000000000    0.0000000000000000    3.35000000000000000
C
   2
Direct
  0.6666666666666666  0.3333333333333333  0.0000000000000000
  0.3333333333333334  0.6666666666666667  0.0000000000000000
