K-Path Generated by VASPKIT.
   60
Line-Mode
Reciprocal
  0.5000000000   0.0000000000    0    M
  0.0000000000   0.0000000000    0    G

  0.0000000000   0.0000000000    0    G
 -0.5000000000   0.0000000000    0    M
