POSCAR Gen by MATLAB
1.0
       1         0         0
       0         1         0
       0         0         1
   C
   4
Direct
     0.00000000         0.000000000         0.00000000    C p z
     0.00000000         0.000000000         0.00000000    C p z
     0.00000000         0.000000000         0.00000000    C p z
     0.00000000         0.000000000         0.00000000    C p z
