POSCAR Gen by MATLAB
1
  -30.839899  19.229858  0.000000
  32.073495  17.093207  0.000000
  0.000000  0.000000  20.000000
C 
  868 
Direct
  0.923195  0.003072  0.000000 C p z  
  0.807988  0.007680  0.000000 C p z  
  0.886329  0.044547  0.000000 C p z  
  0.964670  0.081413  0.000000 C p z  
  0.692780  0.012289  0.000000 C p z  
  0.771121  0.049155  0.000000 C p z  
  0.849462  0.086022  0.000000 C p z  
  0.927803  0.122888  0.000000 C p z  
  0.577573  0.016897  0.000000 C p z  
  0.655914  0.053763  0.000000 C p z  
  0.734255  0.090630  0.000000 C p z  
  0.812596  0.127496  0.000000 C p z  
  0.890937  0.164363  0.000000 C p z  
  0.969278  0.201229  0.000000 C p z  
  0.462366  0.021505  0.000000 C p z  
  0.540707  0.058372  0.000000 C p z  
  0.619048  0.095238  0.000000 C p z  
  0.697389  0.132104  0.000000 C p z  
  0.775730  0.168971  0.000000 C p z  
  0.854071  0.205837  0.000000 C p z  
  0.932412  0.242704  0.000000 C p z  
  0.347158  0.026114  0.000000 C p z  
  0.425499  0.062980  0.000000 C p z  
  0.503840  0.099846  0.000000 C p z  
  0.582181  0.136713  0.000000 C p z  
  0.660522  0.173579  0.000000 C p z  
  0.738863  0.210445  0.000000 C p z  
  0.817204  0.247312  0.000000 C p z  
  0.895545  0.284178  0.000000 C p z  
  0.973886  0.321045  0.000000 C p z  
  0.231951  0.030722  0.000000 C p z  
  0.310292  0.067588  0.000000 C p z  
  0.388633  0.104455  0.000000 C p z  
  0.466974  0.141321  0.000000 C p z  
  0.545315  0.178187  0.000000 C p z  
  0.623656  0.215054  0.000000 C p z  
  0.701997  0.251920  0.000000 C p z  
  0.780338  0.288786  0.000000 C p z  
  0.858679  0.325653  0.000000 C p z  
  0.937020  0.362519  0.000000 C p z  
  0.116743  0.035330  0.000000 C p z  
  0.195084  0.072197  0.000000 C p z  
  0.273425  0.109063  0.000000 C p z  
  0.351767  0.145929  0.000000 C p z  
  0.430108  0.182796  0.000000 C p z  
  0.508449  0.219662  0.000000 C p z  
  0.586790  0.256528  0.000000 C p z  
  0.665131  0.293395  0.000000 C p z  
  0.743472  0.330261  0.000000 C p z  
  0.821813  0.367127  0.000000 C p z  
  0.900154  0.403994  0.000000 C p z  
  0.978495  0.440860  0.000000 C p z  
  0.001536  0.039939  0.000000 C p z  
  0.079877  0.076805  0.000000 C p z  
  0.158218  0.113671  0.000000 C p z  
  0.236559  0.150538  0.000000 C p z  
  0.314900  0.187404  0.000000 C p z  
  0.393241  0.224270  0.000000 C p z  
  0.471582  0.261137  0.000000 C p z  
  0.549923  0.298003  0.000000 C p z  
  0.628264  0.334869  0.000000 C p z  
  0.706605  0.371736  0.000000 C p z  
  0.784946  0.408602  0.000000 C p z  
  0.863287  0.445469  0.000000 C p z  
  0.941628  0.482335  0.000000 C p z  
  0.043011  0.118280  0.000000 C p z  
  0.121352  0.155146  0.000000 C p z  
  0.199693  0.192012  0.000000 C p z  
  0.278034  0.228879  0.000000 C p z  
  0.356375  0.265745  0.000000 C p z  
  0.434716  0.302611  0.000000 C p z  
  0.513057  0.339478  0.000000 C p z  
  0.591398  0.376344  0.000000 C p z  
  0.669739  0.413210  0.000000 C p z  
  0.748080  0.450077  0.000000 C p z  
  0.826421  0.486943  0.000000 C p z  
  0.904762  0.523810  0.000000 C p z  
  0.983103  0.560676  0.000000 C p z  
  0.006144  0.159754  0.000000 C p z  
  0.084485  0.196621  0.000000 C p z  
  0.162826  0.233487  0.000000 C p z  
  0.241167  0.270353  0.000000 C p z  
  0.319508  0.307220  0.000000 C p z  
  0.397849  0.344086  0.000000 C p z  
  0.476190  0.380952  0.000000 C p z  
  0.554531  0.417819  0.000000 C p z  
  0.632873  0.454685  0.000000 C p z  
  0.711214  0.491551  0.000000 C p z  
  0.789555  0.528418  0.000000 C p z  
  0.867896  0.565284  0.000000 C p z  
  0.946237  0.602151  0.000000 C p z  
  0.047619  0.238095  0.000000 C p z  
  0.125960  0.274962  0.000000 C p z  
  0.204301  0.311828  0.000000 C p z  
  0.282642  0.348694  0.000000 C p z  
  0.360983  0.385561  0.000000 C p z  
  0.439324  0.422427  0.000000 C p z  
  0.517665  0.459293  0.000000 C p z  
  0.596006  0.496160  0.000000 C p z  
  0.674347  0.533026  0.000000 C p z  
  0.752688  0.569892  0.000000 C p z  
  0.831029  0.606759  0.000000 C p z  
  0.909370  0.643625  0.000000 C p z  
  0.987711  0.680492  0.000000 C p z  
  0.010753  0.279570  0.000000 C p z  
  0.089094  0.316436  0.000000 C p z  
  0.167435  0.353303  0.000000 C p z  
  0.245776  0.390169  0.000000 C p z  
  0.324117  0.427035  0.000000 C p z  
  0.402458  0.463902  0.000000 C p z  
  0.480799  0.500768  0.000000 C p z  
  0.559140  0.537634  0.000000 C p z  
  0.637481  0.574501  0.000000 C p z  
  0.715822  0.611367  0.000000 C p z  
  0.794163  0.648233  0.000000 C p z  
  0.872504  0.685100  0.000000 C p z  
  0.950845  0.721966  0.000000 C p z  
  0.052227  0.357911  0.000000 C p z  
  0.130568  0.394777  0.000000 C p z  
  0.208909  0.431644  0.000000 C p z  
  0.287250  0.468510  0.000000 C p z  
  0.365591  0.505376  0.000000 C p z  
  0.443932  0.542243  0.000000 C p z  
  0.522273  0.579109  0.000000 C p z  
  0.600614  0.615975  0.000000 C p z  
  0.678955  0.652842  0.000000 C p z  
  0.757296  0.689708  0.000000 C p z  
  0.835637  0.726575  0.000000 C p z  
  0.913978  0.763441  0.000000 C p z  
  0.992320  0.800307  0.000000 C p z  
  0.015361  0.399386  0.000000 C p z  
  0.093702  0.436252  0.000000 C p z  
  0.172043  0.473118  0.000000 C p z  
  0.250384  0.509985  0.000000 C p z  
  0.328725  0.546851  0.000000 C p z  
  0.407066  0.583717  0.000000 C p z  
  0.485407  0.620584  0.000000 C p z  
  0.563748  0.657450  0.000000 C p z  
  0.642089  0.694316  0.000000 C p z  
  0.720430  0.731183  0.000000 C p z  
  0.798771  0.768049  0.000000 C p z  
  0.877112  0.804916  0.000000 C p z  
  0.955453  0.841782  0.000000 C p z  
  0.056836  0.477727  0.000000 C p z  
  0.135177  0.514593  0.000000 C p z  
  0.213518  0.551459  0.000000 C p z  
  0.291859  0.588326  0.000000 C p z  
  0.370200  0.625192  0.000000 C p z  
  0.448541  0.662058  0.000000 C p z  
  0.526882  0.698925  0.000000 C p z  
  0.605223  0.735791  0.000000 C p z  
  0.683564  0.772657  0.000000 C p z  
  0.761905  0.809524  0.000000 C p z  
  0.840246  0.846390  0.000000 C p z  
  0.918587  0.883257  0.000000 C p z  
  0.996928  0.920123  0.000000 C p z  
  0.019969  0.519201  0.000000 C p z  
  0.098310  0.556068  0.000000 C p z  
  0.176651  0.592934  0.000000 C p z  
  0.254992  0.629800  0.000000 C p z  
  0.333333  0.666667  0.000000 C p z  
  0.411674  0.703533  0.000000 C p z  
  0.490015  0.740399  0.000000 C p z  
  0.568356  0.777266  0.000000 C p z  
  0.646697  0.814132  0.000000 C p z  
  0.725038  0.850998  0.000000 C p z  
  0.803379  0.887865  0.000000 C p z  
  0.881720  0.924731  0.000000 C p z  
  0.960061  0.961598  0.000000 C p z  
  0.061444  0.597542  0.000000 C p z  
  0.139785  0.634409  0.000000 C p z  
  0.218126  0.671275  0.000000 C p z  
  0.296467  0.708141  0.000000 C p z  
  0.374808  0.745008  0.000000 C p z  
  0.453149  0.781874  0.000000 C p z  
  0.531490  0.818740  0.000000 C p z  
  0.609831  0.855607  0.000000 C p z  
  0.688172  0.892473  0.000000 C p z  
  0.766513  0.929339  0.000000 C p z  
  0.844854  0.966206  0.000000 C p z  
  0.024578  0.639017  0.000000 C p z  
  0.102919  0.675883  0.000000 C p z  
  0.181260  0.712750  0.000000 C p z  
  0.259601  0.749616  0.000000 C p z  
  0.337942  0.786482  0.000000 C p z  
  0.416283  0.823349  0.000000 C p z  
  0.494624  0.860215  0.000000 C p z  
  0.572965  0.897081  0.000000 C p z  
  0.651306  0.933948  0.000000 C p z  
  0.729647  0.970814  0.000000 C p z  
  0.066052  0.717358  0.000000 C p z  
  0.144393  0.754224  0.000000 C p z  
  0.222734  0.791091  0.000000 C p z  
  0.301075  0.827957  0.000000 C p z  
  0.379416  0.864823  0.000000 C p z  
  0.457757  0.901690  0.000000 C p z  
  0.536098  0.938556  0.000000 C p z  
  0.614439  0.975422  0.000000 C p z  
  0.029186  0.758833  0.000000 C p z  
  0.107527  0.795699  0.000000 C p z  
  0.185868  0.832565  0.000000 C p z  
  0.264209  0.869432  0.000000 C p z  
  0.342550  0.906298  0.000000 C p z  
  0.420891  0.943164  0.000000 C p z  
  0.499232  0.980031  0.000000 C p z  
  0.070661  0.837174  0.000000 C p z  
  0.149002  0.874040  0.000000 C p z  
  0.227343  0.910906  0.000000 C p z  
  0.305684  0.947773  0.000000 C p z  
  0.384025  0.984639  0.000000 C p z  
  0.033794  0.878648  0.000000 C p z  
  0.112135  0.915515  0.000000 C p z  
  0.190476  0.952381  0.000000 C p z  
  0.268817  0.989247  0.000000 C p z  
  0.075269  0.956989  0.000000 C p z  
  0.153610  0.993856  0.000000 C p z  
  0.038402  0.998464  0.000000 C p z  
  0.961598  0.001536  0.000000 C p z  
  0.846390  0.006144  0.000000 C p z  
  0.924731  0.043011  0.000000 C p z  
  0.731183  0.010753  0.000000 C p z  
  0.809524  0.047619  0.000000 C p z  
  0.887865  0.084485  0.000000 C p z  
  0.966206  0.121352  0.000000 C p z  
  0.615975  0.015361  0.000000 C p z  
  0.694316  0.052227  0.000000 C p z  
  0.772657  0.089094  0.000000 C p z  
  0.850998  0.125960  0.000000 C p z  
  0.929339  0.162826  0.000000 C p z  
  0.500768  0.019969  0.000000 C p z  
  0.579109  0.056836  0.000000 C p z  
  0.657450  0.093702  0.000000 C p z  
  0.735791  0.130568  0.000000 C p z  
  0.814132  0.167435  0.000000 C p z  
  0.892473  0.204301  0.000000 C p z  
  0.970814  0.241167  0.000000 C p z  
  0.385561  0.024578  0.000000 C p z  
  0.463902  0.061444  0.000000 C p z  
  0.542243  0.098310  0.000000 C p z  
  0.620584  0.135177  0.000000 C p z  
  0.698925  0.172043  0.000000 C p z  
  0.777266  0.208909  0.000000 C p z  
  0.855607  0.245776  0.000000 C p z  
  0.933948  0.282642  0.000000 C p z  
  0.270353  0.029186  0.000000 C p z  
  0.348694  0.066052  0.000000 C p z  
  0.427035  0.102919  0.000000 C p z  
  0.505376  0.139785  0.000000 C p z  
  0.583717  0.176651  0.000000 C p z  
  0.662058  0.213518  0.000000 C p z  
  0.740399  0.250384  0.000000 C p z  
  0.818740  0.287250  0.000000 C p z  
  0.897081  0.324117  0.000000 C p z  
  0.975422  0.360983  0.000000 C p z  
  0.155146  0.033794  0.000000 C p z  
  0.233487  0.070661  0.000000 C p z  
  0.311828  0.107527  0.000000 C p z  
  0.390169  0.144393  0.000000 C p z  
  0.468510  0.181260  0.000000 C p z  
  0.546851  0.218126  0.000000 C p z  
  0.625192  0.254992  0.000000 C p z  
  0.703533  0.291859  0.000000 C p z  
  0.781874  0.328725  0.000000 C p z  
  0.860215  0.365591  0.000000 C p z  
  0.938556  0.402458  0.000000 C p z  
  0.039939  0.038402  0.000000 C p z  
  0.118280  0.075269  0.000000 C p z  
  0.196621  0.112135  0.000000 C p z  
  0.274962  0.149002  0.000000 C p z  
  0.353303  0.185868  0.000000 C p z  
  0.431644  0.222734  0.000000 C p z  
  0.509985  0.259601  0.000000 C p z  
  0.588326  0.296467  0.000000 C p z  
  0.666667  0.333333  0.000000 C p z  
  0.745008  0.370200  0.000000 C p z  
  0.823349  0.407066  0.000000 C p z  
  0.901690  0.443932  0.000000 C p z  
  0.980031  0.480799  0.000000 C p z  
  0.003072  0.079877  0.000000 C p z  
  0.081413  0.116743  0.000000 C p z  
  0.159754  0.153610  0.000000 C p z  
  0.238095  0.190476  0.000000 C p z  
  0.316436  0.227343  0.000000 C p z  
  0.394777  0.264209  0.000000 C p z  
  0.473118  0.301075  0.000000 C p z  
  0.551459  0.337942  0.000000 C p z  
  0.629800  0.374808  0.000000 C p z  
  0.708141  0.411674  0.000000 C p z  
  0.786482  0.448541  0.000000 C p z  
  0.864823  0.485407  0.000000 C p z  
  0.943164  0.522273  0.000000 C p z  
  0.044547  0.158218  0.000000 C p z  
  0.122888  0.195084  0.000000 C p z  
  0.201229  0.231951  0.000000 C p z  
  0.279570  0.268817  0.000000 C p z  
  0.357911  0.305684  0.000000 C p z  
  0.436252  0.342550  0.000000 C p z  
  0.514593  0.379416  0.000000 C p z  
  0.592934  0.416283  0.000000 C p z  
  0.671275  0.453149  0.000000 C p z  
  0.749616  0.490015  0.000000 C p z  
  0.827957  0.526882  0.000000 C p z  
  0.906298  0.563748  0.000000 C p z  
  0.984639  0.600614  0.000000 C p z  
  0.007680  0.199693  0.000000 C p z  
  0.086022  0.236559  0.000000 C p z  
  0.164363  0.273426  0.000000 C p z  
  0.242704  0.310292  0.000000 C p z  
  0.321045  0.347158  0.000000 C p z  
  0.399386  0.384025  0.000000 C p z  
  0.477727  0.420891  0.000000 C p z  
  0.556068  0.457757  0.000000 C p z  
  0.634409  0.494624  0.000000 C p z  
  0.712750  0.531490  0.000000 C p z  
  0.791091  0.568356  0.000000 C p z  
  0.869432  0.605223  0.000000 C p z  
  0.947773  0.642089  0.000000 C p z  
  0.049155  0.278034  0.000000 C p z  
  0.127496  0.314900  0.000000 C p z  
  0.205837  0.351767  0.000000 C p z  
  0.284178  0.388633  0.000000 C p z  
  0.362519  0.425499  0.000000 C p z  
  0.440860  0.462366  0.000000 C p z  
  0.519201  0.499232  0.000000 C p z  
  0.597542  0.536098  0.000000 C p z  
  0.675883  0.572965  0.000000 C p z  
  0.754224  0.609831  0.000000 C p z  
  0.832565  0.646697  0.000000 C p z  
  0.910906  0.683564  0.000000 C p z  
  0.989247  0.720430  0.000000 C p z  
  0.012289  0.319508  0.000000 C p z  
  0.090630  0.356375  0.000000 C p z  
  0.168971  0.393241  0.000000 C p z  
  0.247312  0.430108  0.000000 C p z  
  0.325653  0.466974  0.000000 C p z  
  0.403994  0.503840  0.000000 C p z  
  0.482335  0.540707  0.000000 C p z  
  0.560676  0.577573  0.000000 C p z  
  0.639017  0.614439  0.000000 C p z  
  0.717358  0.651306  0.000000 C p z  
  0.795699  0.688172  0.000000 C p z  
  0.874040  0.725038  0.000000 C p z  
  0.952381  0.761905  0.000000 C p z  
  0.053763  0.397849  0.000000 C p z  
  0.132104  0.434716  0.000000 C p z  
  0.210445  0.471582  0.000000 C p z  
  0.288786  0.508449  0.000000 C p z  
  0.367127  0.545315  0.000000 C p z  
  0.445469  0.582181  0.000000 C p z  
  0.523810  0.619048  0.000000 C p z  
  0.602151  0.655914  0.000000 C p z  
  0.680492  0.692780  0.000000 C p z  
  0.758833  0.729647  0.000000 C p z  
  0.837174  0.766513  0.000000 C p z  
  0.915515  0.803379  0.000000 C p z  
  0.993856  0.840246  0.000000 C p z  
  0.016897  0.439324  0.000000 C p z  
  0.095238  0.476190  0.000000 C p z  
  0.173579  0.513057  0.000000 C p z  
  0.251920  0.549923  0.000000 C p z  
  0.330261  0.586790  0.000000 C p z  
  0.408602  0.623656  0.000000 C p z  
  0.486943  0.660522  0.000000 C p z  
  0.565284  0.697389  0.000000 C p z  
  0.643625  0.734255  0.000000 C p z  
  0.721966  0.771121  0.000000 C p z  
  0.800307  0.807988  0.000000 C p z  
  0.878648  0.844854  0.000000 C p z  
  0.956989  0.881720  0.000000 C p z  
  0.058372  0.517665  0.000000 C p z  
  0.136713  0.554531  0.000000 C p z  
  0.215054  0.591398  0.000000 C p z  
  0.293395  0.628264  0.000000 C p z  
  0.371736  0.665131  0.000000 C p z  
  0.450077  0.701997  0.000000 C p z  
  0.528418  0.738863  0.000000 C p z  
  0.606759  0.775730  0.000000 C p z  
  0.685100  0.812596  0.000000 C p z  
  0.763441  0.849462  0.000000 C p z  
  0.841782  0.886329  0.000000 C p z  
  0.920123  0.923195  0.000000 C p z  
  0.998464  0.960061  0.000000 C p z  
  0.021505  0.559140  0.000000 C p z  
  0.099846  0.596006  0.000000 C p z  
  0.178187  0.632873  0.000000 C p z  
  0.256528  0.669739  0.000000 C p z  
  0.334869  0.706605  0.000000 C p z  
  0.413210  0.743472  0.000000 C p z  
  0.491551  0.780338  0.000000 C p z  
  0.569892  0.817204  0.000000 C p z  
  0.648233  0.854071  0.000000 C p z  
  0.726575  0.890937  0.000000 C p z  
  0.804916  0.927803  0.000000 C p z  
  0.883257  0.964670  0.000000 C p z  
  0.062980  0.637481  0.000000 C p z  
  0.141321  0.674347  0.000000 C p z  
  0.219662  0.711214  0.000000 C p z  
  0.298003  0.748080  0.000000 C p z  
  0.376344  0.784946  0.000000 C p z  
  0.454685  0.821813  0.000000 C p z  
  0.533026  0.858679  0.000000 C p z  
  0.611367  0.895545  0.000000 C p z  
  0.689708  0.932412  0.000000 C p z  
  0.768049  0.969278  0.000000 C p z  
  0.026114  0.678955  0.000000 C p z  
  0.104455  0.715822  0.000000 C p z  
  0.182796  0.752688  0.000000 C p z  
  0.261137  0.789555  0.000000 C p z  
  0.339478  0.826421  0.000000 C p z  
  0.417819  0.863287  0.000000 C p z  
  0.496160  0.900154  0.000000 C p z  
  0.574501  0.937020  0.000000 C p z  
  0.652842  0.973886  0.000000 C p z  
  0.067588  0.757296  0.000000 C p z  
  0.145929  0.794163  0.000000 C p z  
  0.224270  0.831029  0.000000 C p z  
  0.302611  0.867896  0.000000 C p z  
  0.380952  0.904762  0.000000 C p z  
  0.459293  0.941628  0.000000 C p z  
  0.537634  0.978495  0.000000 C p z  
  0.030722  0.798771  0.000000 C p z  
  0.109063  0.835637  0.000000 C p z  
  0.187404  0.872504  0.000000 C p z  
  0.265745  0.909370  0.000000 C p z  
  0.344086  0.946237  0.000000 C p z  
  0.422427  0.983103  0.000000 C p z  
  0.072197  0.877112  0.000000 C p z  
  0.150538  0.913978  0.000000 C p z  
  0.228879  0.950845  0.000000 C p z  
  0.307220  0.987711  0.000000 C p z  
  0.035330  0.918587  0.000000 C p z  
  0.113671  0.955453  0.000000 C p z  
  0.192012  0.992320  0.000000 C p z  
  0.076805  0.996928  0.000000 C p z  
  0.998464  0.038402  0.071222 C p z  
  0.878648  0.033794  0.071222 C p z  
  0.956989  0.075269  0.071222 C p z  
  0.758833  0.029186  0.071222 C p z  
  0.837174  0.070661  0.071222 C p z  
  0.915515  0.112135  0.071222 C p z  
  0.993856  0.153610  0.071222 C p z  
  0.639017  0.024578  0.071222 C p z  
  0.717358  0.066052  0.071222 C p z  
  0.795699  0.107527  0.071222 C p z  
  0.874040  0.149002  0.071222 C p z  
  0.952381  0.190476  0.071222 C p z  
  0.519201  0.019969  0.071222 C p z  
  0.597542  0.061444  0.071222 C p z  
  0.675883  0.102919  0.071222 C p z  
  0.754224  0.144393  0.071222 C p z  
  0.832565  0.185868  0.071222 C p z  
  0.910906  0.227343  0.071222 C p z  
  0.989247  0.268817  0.071222 C p z  
  0.399386  0.015361  0.071222 C p z  
  0.477727  0.056836  0.071222 C p z  
  0.556068  0.098310  0.071222 C p z  
  0.634409  0.139785  0.071222 C p z  
  0.712750  0.181260  0.071222 C p z  
  0.791091  0.222734  0.071222 C p z  
  0.869432  0.264209  0.071222 C p z  
  0.947773  0.305684  0.071222 C p z  
  0.279570  0.010753  0.071222 C p z  
  0.357911  0.052227  0.071222 C p z  
  0.436252  0.093702  0.071222 C p z  
  0.514593  0.135177  0.071222 C p z  
  0.592934  0.176651  0.071222 C p z  
  0.671275  0.218126  0.071222 C p z  
  0.749616  0.259601  0.071222 C p z  
  0.827957  0.301075  0.071222 C p z  
  0.906298  0.342550  0.071222 C p z  
  0.984639  0.384025  0.071222 C p z  
  0.159754  0.006144  0.071222 C p z  
  0.238095  0.047619  0.071222 C p z  
  0.316436  0.089094  0.071222 C p z  
  0.394777  0.130568  0.071222 C p z  
  0.473118  0.172043  0.071222 C p z  
  0.551459  0.213518  0.071222 C p z  
  0.629800  0.254992  0.071222 C p z  
  0.708141  0.296467  0.071222 C p z  
  0.786482  0.337942  0.071222 C p z  
  0.864823  0.379416  0.071222 C p z  
  0.943164  0.420891  0.071222 C p z  
  0.039939  0.001536  0.071222 C p z  
  0.118280  0.043011  0.071222 C p z  
  0.196621  0.084485  0.071222 C p z  
  0.274962  0.125960  0.071222 C p z  
  0.353303  0.167435  0.071222 C p z  
  0.431644  0.208909  0.071222 C p z  
  0.509985  0.250384  0.071222 C p z  
  0.588326  0.291859  0.071222 C p z  
  0.666667  0.333333  0.071222 C p z  
  0.745008  0.374808  0.071222 C p z  
  0.823349  0.416283  0.071222 C p z  
  0.901690  0.457757  0.071222 C p z  
  0.980031  0.499232  0.071222 C p z  
  0.076805  0.079877  0.071222 C p z  
  0.155146  0.121352  0.071222 C p z  
  0.233487  0.162826  0.071222 C p z  
  0.311828  0.204301  0.071222 C p z  
  0.390169  0.245776  0.071222 C p z  
  0.468510  0.287250  0.071222 C p z  
  0.546851  0.328725  0.071222 C p z  
  0.625192  0.370200  0.071222 C p z  
  0.703533  0.411674  0.071222 C p z  
  0.781874  0.453149  0.071222 C p z  
  0.860215  0.494624  0.071222 C p z  
  0.938556  0.536098  0.071222 C p z  
  0.035330  0.116743  0.071222 C p z  
  0.113671  0.158218  0.071222 C p z  
  0.192012  0.199693  0.071222 C p z  
  0.270353  0.241167  0.071222 C p z  
  0.348694  0.282642  0.071222 C p z  
  0.427035  0.324117  0.071222 C p z  
  0.505376  0.365591  0.071222 C p z  
  0.583717  0.407066  0.071222 C p z  
  0.662058  0.448541  0.071222 C p z  
  0.740399  0.490015  0.071222 C p z  
  0.818740  0.531490  0.071222 C p z  
  0.897081  0.572965  0.071222 C p z  
  0.975422  0.614439  0.071222 C p z  
  0.072197  0.195084  0.071222 C p z  
  0.150538  0.236559  0.071222 C p z  
  0.228879  0.278034  0.071222 C p z  
  0.307220  0.319508  0.071222 C p z  
  0.385561  0.360983  0.071222 C p z  
  0.463902  0.402458  0.071222 C p z  
  0.542243  0.443932  0.071222 C p z  
  0.620584  0.485407  0.071222 C p z  
  0.698925  0.526882  0.071222 C p z  
  0.777266  0.568356  0.071222 C p z  
  0.855607  0.609831  0.071222 C p z  
  0.933948  0.651306  0.071222 C p z  
  0.030722  0.231951  0.071222 C p z  
  0.109063  0.273426  0.071222 C p z  
  0.187404  0.314900  0.071222 C p z  
  0.265745  0.356375  0.071222 C p z  
  0.344086  0.397849  0.071222 C p z  
  0.422427  0.439324  0.071222 C p z  
  0.500768  0.480799  0.071222 C p z  
  0.579109  0.522273  0.071222 C p z  
  0.657450  0.563748  0.071222 C p z  
  0.735791  0.605223  0.071222 C p z  
  0.814132  0.646697  0.071222 C p z  
  0.892473  0.688172  0.071222 C p z  
  0.970814  0.729647  0.071222 C p z  
  0.067588  0.310292  0.071222 C p z  
  0.145929  0.351767  0.071222 C p z  
  0.224270  0.393241  0.071222 C p z  
  0.302611  0.434716  0.071222 C p z  
  0.380952  0.476190  0.071222 C p z  
  0.459293  0.517665  0.071222 C p z  
  0.537634  0.559140  0.071222 C p z  
  0.615975  0.600614  0.071222 C p z  
  0.694316  0.642089  0.071222 C p z  
  0.772657  0.683564  0.071222 C p z  
  0.850998  0.725038  0.071222 C p z  
  0.929339  0.766513  0.071222 C p z  
  0.026114  0.347158  0.071222 C p z  
  0.104455  0.388633  0.071222 C p z  
  0.182796  0.430108  0.071222 C p z  
  0.261137  0.471582  0.071222 C p z  
  0.339478  0.513057  0.071222 C p z  
  0.417819  0.554531  0.071222 C p z  
  0.496160  0.596006  0.071222 C p z  
  0.574501  0.637481  0.071222 C p z  
  0.652842  0.678955  0.071222 C p z  
  0.731183  0.720430  0.071222 C p z  
  0.809524  0.761905  0.071222 C p z  
  0.887865  0.803379  0.071222 C p z  
  0.966206  0.844854  0.071222 C p z  
  0.062980  0.425499  0.071222 C p z  
  0.141321  0.466974  0.071222 C p z  
  0.219662  0.508449  0.071222 C p z  
  0.298003  0.549923  0.071222 C p z  
  0.376344  0.591398  0.071222 C p z  
  0.454685  0.632873  0.071222 C p z  
  0.533026  0.674347  0.071222 C p z  
  0.611367  0.715822  0.071222 C p z  
  0.689708  0.757296  0.071222 C p z  
  0.768049  0.798771  0.071222 C p z  
  0.846390  0.840246  0.071222 C p z  
  0.924731  0.881720  0.071222 C p z  
  0.021505  0.462366  0.071222 C p z  
  0.099846  0.503840  0.071222 C p z  
  0.178187  0.545315  0.071222 C p z  
  0.256528  0.586790  0.071222 C p z  
  0.334869  0.628264  0.071222 C p z  
  0.413210  0.669739  0.071222 C p z  
  0.491551  0.711214  0.071222 C p z  
  0.569892  0.752688  0.071222 C p z  
  0.648233  0.794163  0.071222 C p z  
  0.726575  0.835637  0.071222 C p z  
  0.804916  0.877112  0.071222 C p z  
  0.883257  0.918587  0.071222 C p z  
  0.961598  0.960061  0.071222 C p z  
  0.058372  0.540707  0.071222 C p z  
  0.136713  0.582181  0.071222 C p z  
  0.215054  0.623656  0.071222 C p z  
  0.293395  0.665131  0.071222 C p z  
  0.371736  0.706605  0.071222 C p z  
  0.450077  0.748080  0.071222 C p z  
  0.528418  0.789555  0.071222 C p z  
  0.606759  0.831029  0.071222 C p z  
  0.685100  0.872504  0.071222 C p z  
  0.763441  0.913978  0.071222 C p z  
  0.841782  0.955453  0.071222 C p z  
  0.920123  0.996928  0.071222 C p z  
  0.016897  0.577573  0.071222 C p z  
  0.095238  0.619048  0.071222 C p z  
  0.173579  0.660522  0.071222 C p z  
  0.251920  0.701997  0.071222 C p z  
  0.330261  0.743472  0.071222 C p z  
  0.408602  0.784946  0.071222 C p z  
  0.486943  0.826421  0.071222 C p z  
  0.565284  0.867896  0.071222 C p z  
  0.643625  0.909370  0.071222 C p z  
  0.721966  0.950845  0.071222 C p z  
  0.800307  0.992320  0.071222 C p z  
  0.053763  0.655914  0.071222 C p z  
  0.132104  0.697389  0.071222 C p z  
  0.210445  0.738863  0.071222 C p z  
  0.288786  0.780338  0.071222 C p z  
  0.367127  0.821813  0.071222 C p z  
  0.445469  0.863287  0.071222 C p z  
  0.523810  0.904762  0.071222 C p z  
  0.602151  0.946237  0.071222 C p z  
  0.680492  0.987711  0.071222 C p z  
  0.012289  0.692780  0.071222 C p z  
  0.090630  0.734255  0.071222 C p z  
  0.168971  0.775730  0.071222 C p z  
  0.247312  0.817204  0.071222 C p z  
  0.325653  0.858679  0.071222 C p z  
  0.403994  0.900154  0.071222 C p z  
  0.482335  0.941628  0.071222 C p z  
  0.560676  0.983103  0.071222 C p z  
  0.049155  0.771121  0.071222 C p z  
  0.127496  0.812596  0.071222 C p z  
  0.205837  0.854071  0.071222 C p z  
  0.284178  0.895545  0.071222 C p z  
  0.362519  0.937020  0.071222 C p z  
  0.440860  0.978495  0.071222 C p z  
  0.007680  0.807988  0.071222 C p z  
  0.086022  0.849462  0.071222 C p z  
  0.164363  0.890937  0.071222 C p z  
  0.242704  0.932412  0.071222 C p z  
  0.321045  0.973886  0.071222 C p z  
  0.044547  0.886329  0.071222 C p z  
  0.122888  0.927803  0.071222 C p z  
  0.201229  0.969278  0.071222 C p z  
  0.003072  0.923195  0.071222 C p z  
  0.081413  0.964670  0.071222 C p z  
  0.918587  0.035330  0.071222 C p z  
  0.996928  0.076805  0.071222 C p z  
  0.798771  0.030722  0.071222 C p z  
  0.877112  0.072197  0.071222 C p z  
  0.955453  0.113671  0.071222 C p z  
  0.678955  0.026114  0.071222 C p z  
  0.757296  0.067588  0.071222 C p z  
  0.835637  0.109063  0.071222 C p z  
  0.913978  0.150538  0.071222 C p z  
  0.992320  0.192012  0.071222 C p z  
  0.559140  0.021505  0.071222 C p z  
  0.637481  0.062980  0.071222 C p z  
  0.715822  0.104455  0.071222 C p z  
  0.794163  0.145929  0.071222 C p z  
  0.872504  0.187404  0.071222 C p z  
  0.950845  0.228879  0.071222 C p z  
  0.439324  0.016897  0.071222 C p z  
  0.517665  0.058372  0.071222 C p z  
  0.596006  0.099846  0.071222 C p z  
  0.674347  0.141321  0.071222 C p z  
  0.752688  0.182796  0.071222 C p z  
  0.831029  0.224270  0.071222 C p z  
  0.909370  0.265745  0.071222 C p z  
  0.987711  0.307220  0.071222 C p z  
  0.319508  0.012289  0.071222 C p z  
  0.397849  0.053763  0.071222 C p z  
  0.476190  0.095238  0.071222 C p z  
  0.554531  0.136713  0.071222 C p z  
  0.632873  0.178187  0.071222 C p z  
  0.711214  0.219662  0.071222 C p z  
  0.789555  0.261137  0.071222 C p z  
  0.867896  0.302611  0.071222 C p z  
  0.946237  0.344086  0.071222 C p z  
  0.199693  0.007680  0.071222 C p z  
  0.278034  0.049155  0.071222 C p z  
  0.356375  0.090630  0.071222 C p z  
  0.434716  0.132104  0.071222 C p z  
  0.513057  0.173579  0.071222 C p z  
  0.591398  0.215054  0.071222 C p z  
  0.669739  0.256528  0.071222 C p z  
  0.748080  0.298003  0.071222 C p z  
  0.826421  0.339478  0.071222 C p z  
  0.904762  0.380952  0.071222 C p z  
  0.983103  0.422427  0.071222 C p z  
  0.079877  0.003072  0.071222 C p z  
  0.158218  0.044547  0.071222 C p z  
  0.236559  0.086022  0.071222 C p z  
  0.314900  0.127496  0.071222 C p z  
  0.393241  0.168971  0.071222 C p z  
  0.471582  0.210445  0.071222 C p z  
  0.549923  0.251920  0.071222 C p z  
  0.628264  0.293395  0.071222 C p z  
  0.706605  0.334869  0.071222 C p z  
  0.784946  0.376344  0.071222 C p z  
  0.863287  0.417819  0.071222 C p z  
  0.941628  0.459293  0.071222 C p z  
  0.038402  0.039939  0.071222 C p z  
  0.116743  0.081413  0.071222 C p z  
  0.195084  0.122888  0.071222 C p z  
  0.273426  0.164363  0.071222 C p z  
  0.351767  0.205837  0.071222 C p z  
  0.430108  0.247312  0.071222 C p z  
  0.508449  0.288786  0.071222 C p z  
  0.586790  0.330261  0.071222 C p z  
  0.665131  0.371736  0.071222 C p z  
  0.743472  0.413210  0.071222 C p z  
  0.821813  0.454685  0.071222 C p z  
  0.900154  0.496160  0.071222 C p z  
  0.978495  0.537634  0.071222 C p z  
  0.075269  0.118280  0.071222 C p z  
  0.153610  0.159754  0.071222 C p z  
  0.231951  0.201229  0.071222 C p z  
  0.310292  0.242704  0.071222 C p z  
  0.388633  0.284178  0.071222 C p z  
  0.466974  0.325653  0.071222 C p z  
  0.545315  0.367127  0.071222 C p z  
  0.623656  0.408602  0.071222 C p z  
  0.701997  0.450077  0.071222 C p z  
  0.780338  0.491551  0.071222 C p z  
  0.858679  0.533026  0.071222 C p z  
  0.937020  0.574501  0.071222 C p z  
  0.033794  0.155146  0.071222 C p z  
  0.112135  0.196621  0.071222 C p z  
  0.190476  0.238095  0.071222 C p z  
  0.268817  0.279570  0.071222 C p z  
  0.347158  0.321045  0.071222 C p z  
  0.425499  0.362519  0.071222 C p z  
  0.503840  0.403994  0.071222 C p z  
  0.582181  0.445469  0.071222 C p z  
  0.660522  0.486943  0.071222 C p z  
  0.738863  0.528418  0.071222 C p z  
  0.817204  0.569892  0.071222 C p z  
  0.895545  0.611367  0.071222 C p z  
  0.973886  0.652842  0.071222 C p z  
  0.070661  0.233487  0.071222 C p z  
  0.149002  0.274962  0.071222 C p z  
  0.227343  0.316436  0.071222 C p z  
  0.305684  0.357911  0.071222 C p z  
  0.384025  0.399386  0.071222 C p z  
  0.462366  0.440860  0.071222 C p z  
  0.540707  0.482335  0.071222 C p z  
  0.619048  0.523810  0.071222 C p z  
  0.697389  0.565284  0.071222 C p z  
  0.775730  0.606759  0.071222 C p z  
  0.854071  0.648233  0.071222 C p z  
  0.932412  0.689708  0.071222 C p z  
  0.029186  0.270353  0.071222 C p z  
  0.107527  0.311828  0.071222 C p z  
  0.185868  0.353303  0.071222 C p z  
  0.264209  0.394777  0.071222 C p z  
  0.342550  0.436252  0.071222 C p z  
  0.420891  0.477727  0.071222 C p z  
  0.499232  0.519201  0.071222 C p z  
  0.577573  0.560676  0.071222 C p z  