POSCAR Gen by vasplib
1
  25.135695  0.000000  0.000000
  -251.356945  435.363000  0.000000
  0.000000  0.000000  20.000000
C 
  5040 
Direct
  0.104421  0.036815  0.388179  
  0.104421  0.086815  0.388179  
  0.104421  0.136815  0.388179  
  0.104421  0.186815  0.388179  
  0.104421  0.236815  0.388179  
  0.104421  0.286815  0.388179  
  0.104421  0.336815  0.388179  
  0.104421  0.386815  0.388179  
  0.104421  0.436815  0.388179  
  0.104421  0.486815  0.388179  
  0.104421  0.536815  0.388179  
  0.104421  0.586815  0.388179  
  0.104421  0.636815  0.388179  
  0.104421  0.686815  0.388179  
  0.104421  0.736815  0.388179  
  0.104421  0.786815  0.388179  
  0.104421  0.836815  0.388179  
  0.104421  0.886815  0.388179  
  0.104421  0.936815  0.388179  
  0.104421  0.986815  0.388179  
  0.247278  0.008244  0.388179  
  0.247278  0.058244  0.388179  
  0.247278  0.108244  0.388179  
  0.247278  0.158244  0.388179  
  0.247278  0.208244  0.388179  
  0.247278  0.258244  0.388179  
  0.247278  0.308244  0.388179  
  0.247278  0.358244  0.388179  
  0.247278  0.408244  0.388179  
  0.247278  0.458244  0.388179  
  0.247278  0.508244  0.388179  
  0.247278  0.558244  0.388179  
  0.247278  0.608244  0.388179  
  0.247278  0.658244  0.388179  
  0.247278  0.708244  0.388179  
  0.247278  0.758244  0.388179  
  0.247278  0.808244  0.388179  
  0.247278  0.858244  0.388179  
  0.247278  0.908244  0.388179  
  0.247278  0.958244  0.388179  
  0.390136  0.029672  0.388179  
  0.390136  0.079672  0.388179  
  0.390136  0.129672  0.388179  
  0.390136  0.179672  0.388179  
  0.390136  0.229672  0.388179  
  0.390136  0.279672  0.388179  
  0.390136  0.329672  0.388179  
  0.390136  0.379672  0.388179  
  0.390136  0.429672  0.388179  
  0.390136  0.479672  0.388179  
  0.390136  0.529672  0.388179  
  0.390136  0.579672  0.388179  
  0.390136  0.629672  0.388179  
  0.390136  0.679672  0.388179  
  0.390136  0.729672  0.388179  
  0.390136  0.779672  0.388179  
  0.390136  0.829672  0.388179  
  0.390136  0.879672  0.388179  
  0.390136  0.929672  0.388179  
  0.390136  0.979672  0.388179  
  0.532993  0.001101  0.388179  
  0.532993  0.051101  0.388179  
  0.532993  0.101101  0.388179  
  0.532993  0.151101  0.388179  
  0.532993  0.201101  0.388179  
  0.532993  0.251101  0.388179  
  0.532993  0.301101  0.388179  
  0.532993  0.351101  0.388179  
  0.532993  0.401101  0.388179  
  0.532993  0.451101  0.388179  
  0.532993  0.501101  0.388179  
  0.532993  0.551101  0.388179  
  0.532993  0.601101  0.388179  
  0.532993  0.651101  0.388179  
  0.532993  0.701101  0.388179  
  0.532993  0.751101  0.388179  
  0.532993  0.801101  0.388179  
  0.532993  0.851101  0.388179  
  0.532993  0.901101  0.388179  
  0.532993  0.951101  0.388179  
  0.675850  0.022530  0.388179  
  0.675850  0.072530  0.388179  
  0.675850  0.122530  0.388179  
  0.675850  0.172530  0.388179  
  0.675850  0.222530  0.388179  
  0.675850  0.272530  0.388179  
  0.675850  0.322530  0.388179  
  0.675850  0.372530  0.388179  
  0.675850  0.422530  0.388179  
  0.675850  0.472530  0.388179  
  0.675850  0.522530  0.388179  
  0.675850  0.572530  0.388179  
  0.675850  0.622530  0.388179  
  0.675850  0.672530  0.388179  
  0.675850  0.722530  0.388179  
  0.675850  0.772530  0.388179  
  0.675850  0.822530  0.388179  
  0.675850  0.872530  0.388179  
  0.675850  0.922530  0.388179  
  0.675850  0.972530  0.388179  
  0.818707  0.043958  0.388179  
  0.818707  0.093958  0.388179  
  0.818707  0.143958  0.388179  
  0.818707  0.193958  0.388179  
  0.818707  0.243958  0.388179  
  0.818707  0.293958  0.388179  
  0.818707  0.343958  0.388179  
  0.818707  0.393958  0.388179  
  0.818707  0.443958  0.388179  
  0.818707  0.493958  0.388179  
  0.818707  0.543958  0.388179  
  0.818707  0.593958  0.388179  
  0.818707  0.643958  0.388179  
  0.818707  0.693958  0.388179  
  0.818707  0.743958  0.388179  
  0.818707  0.793958  0.388179  
  0.818707  0.843958  0.388179  
  0.818707  0.893958  0.388179  
  0.818707  0.943958  0.388179  
  0.818707  0.993958  0.388179  
  0.961564  0.015387  0.388179  
  0.961564  0.065387  0.388179  
  0.961564  0.115387  0.388179  
  0.961564  0.165387  0.388179  
  0.961564  0.215387  0.388179  
  0.961564  0.265387  0.388179  
  0.961564  0.315387  0.388179  
  0.961564  0.365387  0.388179  
  0.961564  0.415387  0.388179  
  0.961564  0.465387  0.388179  
  0.961564  0.515387  0.388179  
  0.961564  0.565387  0.388179  
  0.961564  0.615387  0.388179  
  0.961564  0.665387  0.388179  
  0.961564  0.715387  0.388179  
  0.961564  0.765387  0.388179  
  0.961564  0.815387  0.388179  
  0.961564  0.865387  0.388179  
  0.961564  0.915387  0.388179  
  0.961564  0.965387  0.388179  
  0.125595  0.039958  0.388179  
  0.125595  0.089958  0.388179  
  0.125595  0.139958  0.388179  
  0.125595  0.189958  0.388179  
  0.125595  0.239958  0.388179  
  0.125595  0.289958  0.388179  
  0.125595  0.339958  0.388179  
  0.125595  0.389958  0.388179  
  0.125595  0.439958  0.388179  
  0.125595  0.489958  0.388179  
  0.125595  0.539958  0.388179  
  0.125595  0.589958  0.388179  
  0.125595  0.639958  0.388179  
  0.125595  0.689958  0.388179  
  0.125595  0.739958  0.388179  
  0.125595  0.789958  0.388179  
  0.125595  0.839958  0.388179  
  0.125595  0.889958  0.388179  
  0.125595  0.939958  0.388179  
  0.125595  0.989958  0.388179  
  0.268452  0.011387  0.388179  
  0.268452  0.061387  0.388179  
  0.268452  0.111387  0.388179  
  0.268452  0.161387  0.388179  
  0.268452  0.211387  0.388179  
  0.268452  0.261387  0.388179  
  0.268452  0.311387  0.388179  
  0.268452  0.361387  0.388179  
  0.268452  0.411387  0.388179  
  0.268452  0.461387  0.388179  
  0.268452  0.511387  0.388179  
  0.268452  0.561387  0.388179  
  0.268452  0.611387  0.388179  
  0.268452  0.661387  0.388179  
  0.268452  0.711387  0.388179  
  0.268452  0.761387  0.388179  
  0.268452  0.811387  0.388179  
  0.268452  0.861387  0.388179  
  0.268452  0.911387  0.388179  
  0.268452  0.961387  0.388179  
  0.411309  0.032815  0.388179  
  0.411309  0.082815  0.388179  
  0.411309  0.132815  0.388179  
  0.411309  0.182815  0.388179  
  0.411309  0.232815  0.388179  
  0.411309  0.282815  0.388179  
  0.411309  0.332815  0.388179  
  0.411309  0.382815  0.388179  
  0.411309  0.432815  0.388179  
  0.411309  0.482815  0.388179  
  0.411309  0.532815  0.388179  
  0.411309  0.582815  0.388179  
  0.411309  0.632815  0.388179  
  0.411309  0.682815  0.388179  
  0.411309  0.732815  0.388179  
  0.411309  0.782815  0.388179  
  0.411309  0.832815  0.388179  
  0.411309  0.882815  0.388179  
  0.411309  0.932815  0.388179  
  0.411309  0.982815  0.388179  
  0.554166  0.004244  0.388179  
  0.554166  0.054244  0.388179  
  0.554166  0.104244  0.388179  
  0.554166  0.154244  0.388179  
  0.554166  0.204244  0.388179  
  0.554166  0.254244  0.388179  
  0.554166  0.304244  0.388179  
  0.554166  0.354244  0.388179  
  0.554166  0.404244  0.388179  
  0.554166  0.454244  0.388179  
  0.554166  0.504244  0.388179  
  0.554166  0.554244  0.388179  
  0.554166  0.604244  0.388179  
  0.554166  0.654244  0.388179  
  0.554166  0.704244  0.388179  
  0.554166  0.754244  0.388179  
  0.554166  0.804244  0.388179  
  0.554166  0.854244  0.388179  
  0.554166  0.904244  0.388179  
  0.554166  0.954244  0.388179  
  0.697024  0.025673  0.388179  
  0.697024  0.075673  0.388179  
  0.697024  0.125673  0.388179  
  0.697024  0.175673  0.388179  
  0.697024  0.225673  0.388179  
  0.697024  0.275673  0.388179  
  0.697024  0.325673  0.388179  
  0.697024  0.375673  0.388179  
  0.697024  0.425673  0.388179  
  0.697024  0.475673  0.388179  
  0.697024  0.525673  0.388179  
  0.697024  0.575673  0.388179  
  0.697024  0.625673  0.388179  
  0.697024  0.675673  0.388179  
  0.697024  0.725673  0.388179  
  0.697024  0.775673  0.388179  
  0.697024  0.825673  0.388179  
  0.697024  0.875673  0.388179  
  0.697024  0.925673  0.388179  
  0.697024  0.975673  0.388179  
  0.839881  0.047101  0.388179  
  0.839881  0.097101  0.388179  
  0.839881  0.147101  0.388179  
  0.839881  0.197101  0.388179  
  0.839881  0.247101  0.388179  
  0.839881  0.297101  0.388179  
  0.839881  0.347101  0.388179  
  0.839881  0.397101  0.388179  
  0.839881  0.447101  0.388179  
  0.839881  0.497101  0.388179  
  0.839881  0.547101  0.388179  
  0.839881  0.597101  0.388179  
  0.839881  0.647101  0.388179  
  0.839881  0.697101  0.388179  
  0.839881  0.747101  0.388179  
  0.839881  0.797101  0.388179  
  0.839881  0.847101  0.388179  
  0.839881  0.897101  0.388179  
  0.839881  0.947101  0.388179  
  0.839881  0.997101  0.388179  
  0.982738  0.018530  0.388179  
  0.982738  0.068530  0.388179  
  0.982738  0.118530  0.388179  
  0.982738  0.168530  0.388179  
  0.982738  0.218530  0.388179  
  0.982738  0.268530  0.388179  
  0.982738  0.318530  0.388179  
  0.982738  0.368530  0.388179  
  0.982738  0.418530  0.388179  
  0.982738  0.468530  0.388179  
  0.982738  0.518530  0.388179  
  0.982738  0.568530  0.388179  
  0.982738  0.618530  0.388179  
  0.982738  0.668530  0.388179  
  0.982738  0.718530  0.388179  
  0.982738  0.768530  0.388179  
  0.982738  0.818530  0.388179  
  0.982738  0.868530  0.388179  
  0.982738  0.918530  0.388179  
  0.982738  0.968530  0.388179  
  0.003628  0.014352  0.388179  
  0.003628  0.064352  0.388179  
  0.003628  0.114352  0.388179  
  0.003628  0.164352  0.388179  
  0.003628  0.214352  0.388179  
  0.003628  0.264352  0.388179  
  0.003628  0.314352  0.388179  
  0.003628  0.364352  0.388179  
  0.003628  0.414352  0.388179  
  0.003628  0.464352  0.388179  
  0.003628  0.514352  0.388179  
  0.003628  0.564352  0.388179  
  0.003628  0.614352  0.388179  
  0.003628  0.664352  0.388179  
  0.003628  0.714352  0.388179  
  0.003628  0.764352  0.388179  
  0.003628  0.814352  0.388179  
  0.003628  0.864352  0.388179  
  0.003628  0.914352  0.388179  
  0.003628  0.964352  0.388179  
  0.146485  0.035780  0.388179  
  0.146485  0.085780  0.388179  
  0.146485  0.135780  0.388179  
  0.146485  0.185780  0.388179  
  0.146485  0.235780  0.388179  
  0.146485  0.285780  0.388179  
  0.146485  0.335780  0.388179  
  0.146485  0.385780  0.388179  
  0.146485  0.435780  0.388179  
  0.146485  0.485780  0.388179  
  0.146485  0.535780  0.388179  
  0.146485  0.585780  0.388179  
  0.146485  0.635780  0.388179  
  0.146485  0.685780  0.388179  
  0.146485  0.735780  0.388179  
  0.146485  0.785780  0.388179  
  0.146485  0.835780  0.388179  
  0.146485  0.885780  0.388179  
  0.146485  0.935780  0.388179  
  0.146485  0.985780  0.388179  
  0.289342  0.007209  0.388179  
  0.289342  0.057209  0.388179  
  0.289342  0.107209  0.388179  
  0.289342  0.157209  0.388179  
  0.289342  0.207209  0.388179  
  0.289342  0.257209  0.388179  
  0.289342  0.307209  0.388179  
  0.289342  0.357209  0.388179  
  0.289342  0.407209  0.388179  
  0.289342  0.457209  0.388179  
  0.289342  0.507209  0.388179  
  0.289342  0.557209  0.388179  
  0.289342  0.607209  0.388179  
  0.289342  0.657209  0.388179  
  0.289342  0.707209  0.388179  
  0.289342  0.757209  0.388179  
  0.289342  0.807209  0.388179  
  0.289342  0.857209  0.388179  
  0.289342  0.907209  0.388179  
  0.289342  0.957209  0.388179  
  0.432199  0.028637  0.388179  
  0.432199  0.078637  0.388179  
  0.432199  0.128637  0.388179  
  0.432199  0.178637  0.388179  
  0.432199  0.228637  0.388179  
  0.432199  0.278637  0.388179  
  0.432199  0.328637  0.388179  
  0.432199  0.378637  0.388179  
  0.432199  0.428637  0.388179  
  0.432199  0.478637  0.388179  
  0.432199  0.528637  0.388179  
  0.432199  0.578637  0.388179  
  0.432199  0.628637  0.388179  
  0.432199  0.678637  0.388179  
  0.432199  0.728637  0.388179  
  0.432199  0.778637  0.388179  
  0.432199  0.828637  0.388179  
  0.432199  0.878637  0.388179  
  0.432199  0.928637  0.388179  
  0.432199  0.978637  0.388179  
  0.575056  0.000066  0.388179  
  0.575056  0.050066  0.388179  
  0.575056  0.100066  0.388179  
  0.575056  0.150066  0.388179  
  0.575056  0.200066  0.388179  
  0.575056  0.250066  0.388179  
  0.575056  0.300066  0.388179  
  0.575056  0.350066  0.388179  
  0.575056  0.400066  0.388179  
  0.575056  0.450066  0.388179  
  0.575056  0.500066  0.388179  
  0.575056  0.550066  0.388179  
  0.575056  0.600066  0.388179  
  0.575056  0.650066  0.388179  
  0.575056  0.700066  0.388179  
  0.575056  0.750066  0.388179  
  0.575056  0.800066  0.388179  
  0.575056  0.850066  0.388179  
  0.575056  0.900066  0.388179  
  0.575056  0.950066  0.388179  
  0.717914  0.021495  0.388179  
  0.717914  0.071495  0.388179  
  0.717914  0.121495  0.388179  
  0.717914  0.171495  0.388179  
  0.717914  0.221495  0.388179  
  0.717914  0.271495  0.388179  
  0.717914  0.321495  0.388179  
  0.717914  0.371495  0.388179  
  0.717914  0.421495  0.388179  
  0.717914  0.471495  0.388179  
  0.717914  0.521495  0.388179  
  0.717914  0.571495  0.388179  
  0.717914  0.621495  0.388179  
  0.717914  0.671495  0.388179  
  0.717914  0.721495  0.388179  
  0.717914  0.771495  0.388179  
  0.717914  0.821495  0.388179  
  0.717914  0.871495  0.388179  
  0.717914  0.921495  0.388179  
  0.717914  0.971495  0.388179  
  0.860771  0.042923  0.388179  
  0.860771  0.092923  0.388179  
  0.860771  0.142923  0.388179  
  0.860771  0.192923  0.388179  
  0.860771  0.242923  0.388179  
  0.860771  0.292923  0.388179  
  0.860771  0.342923  0.388179  
  0.860771  0.392923  0.388179  
  0.860771  0.442923  0.388179  
  0.860771  0.492923  0.388179  
  0.860771  0.542923  0.388179  
  0.860771  0.592923  0.388179  
  0.860771  0.642923  0.388179  
  0.860771  0.692923  0.388179  
  0.860771  0.742923  0.388179  
  0.860771  0.792923  0.388179  
  0.860771  0.842923  0.388179  
  0.860771  0.892923  0.388179  
  0.860771  0.942923  0.388179  
  0.860771  0.992923  0.388179  
  0.082401  0.012364  0.388179  
  0.082401  0.062364  0.388179  
  0.082401  0.112364  0.388179  
  0.082401  0.162364  0.388179  
  0.082401  0.212364  0.388179  
  0.082401  0.262364  0.388179  
  0.082401  0.312364  0.388179  
  0.082401  0.362364  0.388179  
  0.082401  0.412364  0.388179  
  0.082401  0.462364  0.388179  
  0.082401  0.512364  0.388179  
  0.082401  0.562364  0.388179  
  0.082401  0.612364  0.388179  
  0.082401  0.662364  0.388179  
  0.082401  0.712364  0.388179  
  0.082401  0.762364  0.388179  
  0.082401  0.812364  0.388179  
  0.082401  0.862364  0.388179  
  0.082401  0.912364  0.388179  
  0.082401  0.962364  0.388179  
  0.225258  0.033792  0.388179  
  0.225258  0.083792  0.388179  
  0.225258  0.133792  0.388179  
  0.225258  0.183792  0.388179  
  0.225258  0.233792  0.388179  
  0.225258  0.283792  0.388179  
  0.225258  0.333792  0.388179  
  0.225258  0.383792  0.388179  
  0.225258  0.433792  0.388179  
  0.225258  0.483792  0.388179  
  0.225258  0.533792  0.388179  
  0.225258  0.583792  0.388179  
  0.225258  0.633792  0.388179  
  0.225258  0.683792  0.388179  
  0.225258  0.733792  0.388179  
  0.225258  0.783792  0.388179  
  0.225258  0.833792  0.388179  
  0.225258  0.883792  0.388179  
  0.225258  0.933792  0.388179  
  0.225258  0.983792  0.388179  
  0.368115  0.005221  0.388179  
  0.368115  0.055221  0.388179  
  0.368115  0.105221  0.388179  
  0.368115  0.155221  0.388179  
  0.368115  0.205221  0.388179  
  0.368115  0.255221  0.388179  
  0.368115  0.305221  0.388179  
  0.368115  0.355221  0.388179  
  0.368115  0.405221  0.388179  
  0.368115  0.455221  0.388179  
  0.368115  0.505221  0.388179  
  0.368115  0.555221  0.388179  
  0.368115  0.605221  0.388179  
  0.368115  0.655221  0.388179  
  0.368115  0.705221  0.388179  
  0.368115  0.755221  0.388179  
  0.368115  0.805221  0.388179  
  0.368115  0.855221  0.388179  
  0.368115  0.905221  0.388179  
  0.368115  0.955221  0.388179  
  0.510972  0.026650  0.388179  
  0.510972  0.076650  0.388179  
  0.510972  0.126650  0.388179  
  0.510972  0.176650  0.388179  
  0.510972  0.226650  0.388179  
  0.510972  0.276650  0.388179  
  0.510972  0.326650  0.388179  
  0.510972  0.376650  0.388179  
  0.510972  0.426650  0.388179  
  0.510972  0.476650  0.388179  
  0.510972  0.526650  0.388179  
  0.510972  0.576650  0.388179  
  0.510972  0.626650  0.388179  
  0.510972  0.676650  0.388179  
  0.510972  0.726650  0.388179  
  0.510972  0.776650  0.388179  
  0.510972  0.826650  0.388179  
  0.510972  0.876650  0.388179  
  0.510972  0.926650  0.388179  
  0.510972  0.976650  0.388179  
  0.653829  0.048078  0.388179  
  0.653829  0.098078  0.388179  
  0.653829  0.148078  0.388179  
  0.653829  0.198078  0.388179  
  0.653829  0.248078  0.388179  
  0.653829  0.298078  0.388179  
  0.653829  0.348078  0.388179  
  0.653829  0.398078  0.388179  
  0.653829  0.448078  0.388179  
  0.653829  0.498078  0.388179  
  0.653829  0.548078  0.388179  
  0.653829  0.598078  0.388179  
  0.653829  0.648078  0.388179  
  0.653829  0.698078  0.388179  
  0.653829  0.748078  0.388179  
  0.653829  0.798078  0.388179  
  0.653829  0.848078  0.388179  
  0.653829  0.898078  0.388179  
  0.653829  0.948078  0.388179  
  0.653829  0.998078  0.388179  
  0.796687  0.019507  0.388179  
  0.796687  0.069507  0.388179  
  0.796687  0.119507  0.388179  
  0.796687  0.169507  0.388179  
  0.796687  0.219507  0.388179  
  0.796687  0.269507  0.388179  
  0.796687  0.319507  0.388179  
  0.796687  0.369507  0.388179  
  0.796687  0.419507  0.388179  
  0.796687  0.469507  0.388179  
  0.796687  0.519507  0.388179  
  0.796687  0.569507  0.388179  
  0.796687  0.619507  0.388179  
  0.796687  0.669507  0.388179  
  0.796687  0.719507  0.388179  
  0.796687  0.769507  0.388179  
  0.796687  0.819507  0.388179  
  0.796687  0.869507  0.388179  
  0.796687  0.919507  0.388179  
  0.796687  0.969507  0.388179  
  0.939544  0.040935  0.388179  
  0.939544  0.090935  0.388179  
  0.939544  0.140935  0.388179  
  0.939544  0.190935  0.388179  
  0.939544  0.240935  0.388179  
  0.939544  0.290935  0.388179  
  0.939544  0.340935  0.388179  
  0.939544  0.390935  0.388179  
  0.939544  0.440935  0.388179  
  0.939544  0.490935  0.388179  
  0.939544  0.540935  0.388179  
  0.939544  0.590935  0.388179  
  0.939544  0.640935  0.388179  
  0.939544  0.690935  0.388179  
  0.939544  0.740935  0.388179  
  0.939544  0.790935  0.388179  
  0.939544  0.840935  0.388179  
  0.939544  0.890935  0.388179  
  0.939544  0.940935  0.388179  
  0.939544  0.990935  0.388179  
  0.022020  0.024451  0.388179  
  0.022020  0.074451  0.388179  
  0.022020  0.124451  0.388179  
  0.022020  0.174451  0.388179  
  0.022020  0.224451  0.388179  
  0.022020  0.274451  0.388179  
  0.022020  0.324451  0.388179  
  0.022020  0.374451  0.388179  
  0.022020  0.424451  0.388179  
  0.022020  0.474451  0.388179  
  0.022020  0.524451  0.388179  
  0.022020  0.574451  0.388179  
  0.022020  0.624451  0.388179  
  0.022020  0.674451  0.388179  
  0.022020  0.724451  0.388179  
  0.022020  0.774451  0.388179  
  0.022020  0.824451  0.388179  
  0.022020  0.874451  0.388179  
  0.022020  0.924451  0.388179  
  0.022020  0.974451  0.388179  
  0.164878  0.045880  0.388179  
  0.164878  0.095880  0.388179  
  0.164878  0.145880  0.388179  
  0.164878  0.195880  0.388179  
  0.164878  0.245880  0.388179  
  0.164878  0.295880  0.388179  
  0.164878  0.345880  0.388179  
  0.164878  0.395880  0.388179  
  0.164878  0.445880  0.388179  
  0.164878  0.495880  0.388179  
  0.164878  0.545880  0.388179  
  0.164878  0.595880  0.388179  
  0.164878  0.645880  0.388179  
  0.164878  0.695880  0.388179  
  0.164878  0.745880  0.388179  
  0.164878  0.795880  0.388179  
  0.164878  0.845880  0.388179  
  0.164878  0.895880  0.388179  
  0.164878  0.945880  0.388179  
  0.164878  0.995880  0.388179  
  0.307735  0.017309  0.388179  
  0.307735  0.067309  0.388179  
  0.307735  0.117309  0.388179  
  0.307735  0.167309  0.388179  
  0.307735  0.217309  0.388179  
  0.307735  0.267309  0.388179  
  0.307735  0.317309  0.388179  
  0.307735  0.367309  0.388179  
  0.307735  0.417309  0.388179  
  0.307735  0.467309  0.388179  
  0.307735  0.517309  0.388179  
  0.307735  0.567309  0.388179  
  0.307735  0.617309  0.388179  
  0.307735  0.667309  0.388179  
  0.307735  0.717309  0.388179  
  0.307735  0.767309  0.388179  
  0.307735  0.817309  0.388179  
  0.307735  0.867309  0.388179  
  0.307735  0.917309  0.388179  
  0.307735  0.967309  0.388179  
  0.450592  0.038737  0.388179  
  0.450592  0.088737  0.388179  
  0.450592  0.138737  0.388179  
  0.450592  0.188737  0.388179  
  0.450592  0.238737  0.388179  
  0.450592  0.288737  0.388179  
  0.450592  0.338737  0.388179  
  0.450592  0.388737  0.388179  
  0.450592  0.438737  0.388179  
  0.450592  0.488737  0.388179  
  0.450592  0.538737  0.388179  
  0.450592  0.588737  0.388179  
  0.450592  0.638737  0.388179  
  0.450592  0.688737  0.388179  
  0.450592  0.738737  0.388179  
  0.450592  0.788737  0.388179  
  0.450592  0.838737  0.388179  
  0.450592  0.888737  0.388179  
  0.450592  0.938737  0.388179  
  0.450592  0.988737  0.388179  
  0.593449  0.010166  0.388179  
  0.593449  0.060166  0.388179  
  0.593449  0.110166  0.388179  
  0.593449  0.160166  0.388179  
  0.593449  0.210166  0.388179  
  0.593449  0.260166  0.388179  
  0.593449  0.310166  0.388179  
  0.593449  0.360166  0.388179  
  0.593449  0.410166  0.388179  
  0.593449  0.460166  0.388179  
  0.593449  0.510166  0.388179  
  0.593449  0.560166  0.388179  
  0.593449  0.610166  0.388179  
  0.593449  0.660166  0.388179  
  0.593449  0.710166  0.388179  
  0.593449  0.760166  0.388179  
  0.593449  0.810166  0.388179  
  0.593449  0.860166  0.388179  
  0.593449  0.910166  0.388179  
  0.593449  0.960166  0.388179  
  0.736306  0.031594  0.388179  
  0.736306  0.081594  0.388179  
  0.736306  0.131594  0.388179  
  0.736306  0.181594  0.388179  
  0.736306  0.231594  0.388179  
  0.736306  0.281594  0.388179  
  0.736306  0.331594  0.388179  
  0.736306  0.381594  0.388179  
  0.736306  0.431594  0.388179  
  0.736306  0.481594  0.388179  
  0.736306  0.531594  0.388179  
  0.736306  0.581594  0.388179  
  0.736306  0.631594  0.388179  
  0.736306  0.681594  0.388179  
  0.736306  0.731594  0.388179  
  0.736306  0.781594  0.388179  
  0.736306  0.831594  0.388179  
  0.736306  0.881594  0.388179  
  0.736306  0.931594  0.388179  
  0.736306  0.981594  0.388179  
  0.879163  0.003023  0.388179  
  0.879163  0.053023  0.388179  
  0.879163  0.103023  0.388179  
  0.879163  0.153023  0.388179  
  0.879163  0.203023  0.388179  
  0.879163  0.253023  0.388179  
  0.879163  0.303023  0.388179  
  0.879163  0.353023  0.388179  
  0.879163  0.403023  0.388179  
  0.879163  0.453023  0.388179  
  0.879163  0.503023  0.388179  
  0.879163  0.553023  0.388179  
  0.879163  0.603023  0.388179  
  0.879163  0.653023  0.388179  
  0.879163  0.703023  0.388179  
  0.879163  0.753023  0.388179  
  0.879163  0.803023  0.388179  
  0.879163  0.853023  0.388179  
  0.879163  0.903023  0.388179  
  0.879163  0.953023  0.388179  
  0.001320  0.021313  0.388179  
  0.001320  0.071313  0.388179  
  0.001320  0.121313  0.388179  
  0.001320  0.171313  0.388179  
  0.001320  0.221313  0.388179  
  0.001320  0.271313  0.388179  
  0.001320  0.321313  0.388179  
  0.001320  0.371313  0.388179  
  0.001320  0.421313  0.388179  
  0.001320  0.471313  0.388179  
  0.001320  0.521313  0.388179  
  0.001320  0.571313  0.388179  
  0.001320  0.621313  0.388179  
  0.001320  0.671313  0.388179  
  0.001320  0.721313  0.388179  
  0.001320  0.771313  0.388179  
  0.001320  0.821313  0.388179  
  0.001320  0.871313  0.388179  
  0.001320  0.921313  0.388179  
  0.001320  0.971313  0.388179  
  0.144177  0.042742  0.388179  
  0.144177  0.092742  0.388179  
  0.144177  0.142742  0.388179  
  0.144177  0.192742  0.388179  
  0.144177  0.242742  0.388179  
  0.144177  0.292742  0.388179  
  0.144177  0.342742  0.388179  
  0.144177  0.392742  0.388179  
  0.144177  0.442742  0.388179  
  0.144177  0.492742  0.388179  
  0.144177  0.542742  0.388179  
  0.144177  0.592742  0.388179  
  0.144177  0.642742  0.388179  
  0.144177  0.692742  0.388179  
  0.144177  0.742742  0.388179  
  0.144177  0.792742  0.388179  
  0.144177  0.842742  0.388179  
  0.144177  0.892742  0.388179  
  0.144177  0.942742  0.388179  
  0.144177  0.992742  0.388179  
  0.287034  0.014170  0.388179  
  0.287034  0.064170  0.388179  
  0.287034  0.114170  0.388179  
  0.287034  0.164170  0.388179  
  0.287034  0.214170  0.388179  
  0.287034  0.264170  0.388179  
  0.287034  0.314170  0.388179  
  0.287034  0.364170  0.388179  
  0.287034  0.414170  0.388179  
  0.287034  0.464170  0.388179  
  0.287034  0.514170  0.388179  
  0.287034  0.564170  0.388179  
  0.287034  0.614170  0.388179  
  0.287034  0.664170  0.388179  
  0.287034  0.714170  0.388179  
  0.287034  0.764170  0.388179  
  0.287034  0.814170  0.388179  
  0.287034  0.864170  0.388179  
  0.287034  0.914170  0.388179  
  0.287034  0.964170  0.388179  
  0.429891  0.035599  0.388179  
  0.429891  0.085599  0.388179  
  0.429891  0.135599  0.388179  
  0.429891  0.185599  0.388179  
  0.429891  0.235599  0.388179  
  0.429891  0.285599  0.388179  
  0.429891  0.335599  0.388179  
  0.429891  0.385599  0.388179  
  0.429891  0.435599  0.388179  
  0.429891  0.485599  0.388179  
  0.429891  0.535599  0.388179  
  0.429891  0.585599  0.388179  
  0.429891  0.635599  0.388179  
  0.429891  0.685599  0.388179  
  0.429891  0.735599  0.388179  
  0.429891  0.785599  0.388179  
  0.429891  0.835599  0.388179  
  0.429891  0.885599  0.388179  
  0.429891  0.935599  0.388179  
  0.429891  0.985599  0.388179  
  0.572748  0.007027  0.388179  
  0.572748  0.057027  0.388179  
  0.572748  0.107027  0.388179  
  0.572748  0.157027  0.388179  
  0.572748  0.207027  0.388179  
  0.572748  0.257027  0.388179  
  0.572748  0.307027  0.388179  
  0.572748  0.357027  0.388179  
  0.572748  0.407027  0.388179  
  0.572748  0.457027  0.388179  
  0.572748  0.507027  0.388179  
  0.572748  0.557027  0.388179  
  0.572748  0.607027  0.388179  
  0.572748  0.657027  0.388179  
  0.572748  0.707027  0.388179  
  0.572748  0.757027  0.388179  
  0.572748  0.807027  0.388179  
  0.572748  0.857027  0.388179  
  0.572748  0.907027  0.388179  
  0.572748  0.957027  0.388179  
  0.715605  0.028456  0.388179  
  0.715605  0.078456  0.388179  
  0.715605  0.128456  0.388179  
  0.715605  0.178456  0.388179  
  0.715605  0.228456  0.388179  
  0.715605  0.278456  0.388179  
  0.715605  0.328456  0.388179  
  0.715605  0.378456  0.388179  
  0.715605  0.428456  0.388179  
  0.715605  0.478456  0.388179  
  0.715605  0.528456  0.388179  
  0.715605  0.578456  0.388179  
  0.715605  0.628456  0.388179  
  0.715605  0.678456  0.388179  
  0.715605  0.728456  0.388179  
  0.715605  0.778456  0.388179  
  0.715605  0.828456  0.388179  
  0.715605  0.878456  0.388179  
  0.715605  0.928456  0.388179  
  0.715605  0.978456  0.388179  
  0.858462  0.049885  0.388179  
  0.858462  0.099885  0.388179  
  0.858462  0.149885  0.388179  
  0.858462  0.199885  0.388179  
  0.858462  0.249885  0.388179  
  0.858462  0.299885  0.388179  
  0.858462  0.349885  0.388179  
  0.858462  0.399885  0.388179  
  0.858462  0.449885  0.388179  
  0.858462  0.499885  0.388179  
  0.858462  0.549885  0.388179  
  0.858462  0.599885  0.388179  
  0.858462  0.649885  0.388179  
  0.858462  0.699885  0.388179  
  0.858462  0.749885  0.388179  
  0.858462  0.799885  0.388179  
  0.858462  0.849885  0.388179  
  0.858462  0.899885  0.388179  
  0.858462  0.949885  0.388179  
  0.858462  0.999885  0.388179  
  0.040715  0.013423  0.388179  
  0.040715  0.063423  0.388179  
  0.040715  0.113423  0.388179  
  0.040715  0.163423  0.388179  
  0.040715  0.213423  0.388179  
  0.040715  0.263423  0.388179  
  0.040715  0.313423  0.388179  
  0.040715  0.363423  0.388179  
  0.040715  0.413423  0.388179  
  0.040715  0.463423  0.388179  
  0.040715  0.513423  0.388179  
  0.040715  0.563423  0.388179  
  0.040715  0.613423  0.388179  
  0.040715  0.663423  0.388179  
  0.040715  0.713423  0.388179  
  0.040715  0.763423  0.388179  
  0.040715  0.813423  0.388179  
  0.040715  0.863423  0.388179  
  0.040715  0.913423  0.388179  
  0.040715  0.963423  0.388179  
  0.183573  0.034851  0.388179  
  0.183573  0.084851  0.388179  
  0.183573  0.134851  0.388179  
  0.183573  0.184851  0.388179  
  0.183573  0.234851  0.388179  
  0.183573  0.284851  0.388179  
  0.183573  0.334851  0.388179  
  0.183573  0.384851  0.388179  
  0.183573  0.434851  0.388179  
  0.183573  0.484851  0.388179  
  0.183573  0.534851  0.388179  
  0.183573  0.584851  0.388179  
  0.183573  0.634851  0.388179  
  0.183573  0.684851  0.388179  
  0.183573  0.734851  0.388179  
  0.183573  0.784851  0.388179  
  0.183573  0.834851  0.388179  
  0.183573  0.884851  0.388179  
  0.183573  0.934851  0.388179  
  0.183573  0.984851  0.388179  
  0.326430  0.006280  0.388179  
  0.326430  0.056280  0.388179  
  0.326430  0.106280  0.388179  
  0.326430  0.156280  0.388179  
  0.326430  0.206280  0.388179  
  0.326430  0.256280  0.388179  
  0.326430  0.306280  0.388179  
  0.326430  0.356280  0.388179  
  0.326430  0.406280  0.388179  
  0.326430  0.456280  0.388179  
  0.326430  0.506280  0.388179  
  0.326430  0.556280  0.388179  
  0.326430  0.606280  0.388179  
  0.326430  0.656280  0.388179  
  0.326430  0.706280  0.388179  
  0.326430  0.756280  0.388179  
  0.326430  0.806280  0.388179  
  0.326430  0.856280  0.388179  
  0.326430  0.906280  0.388179  
  0.326430  0.956280  0.388179  
  0.469287  0.027708  0.388179  
  0.469287  0.077708  0.388179  
  0.469287  0.127708  0.388179  
  0.469287  0.177708  0.388179  