POSCAR Gen by MATLAB
1
  -112.257233  66.236178  0.000000
  113.490829  64.099527  0.000000
  0.000000  0.000000  10.000000
C 
  11164 
Direct
  0.978263  0.000239  0.000000  C p z  
  0.945659  0.000597  0.000000  C p z  
  0.967515  0.011346  0.000000  C p z  
  0.989371  0.022095  0.000000  C p z  
  0.913054  0.000955  0.000000  C p z  
  0.934910  0.011704  0.000000  C p z  
  0.956766  0.022453  0.000000  C p z  
  0.978622  0.033202  0.000000  C p z  
  0.880449  0.001314  0.000000  C p z  
  0.902305  0.012063  0.000000  C p z  
  0.924161  0.022811  0.000000  C p z  
  0.946017  0.033560  0.000000  C p z  
  0.967873  0.044309  0.000000  C p z  
  0.989729  0.055058  0.000000  C p z  
  0.847844  0.001672  0.000000  C p z  
  0.869700  0.012421  0.000000  C p z  
  0.891556  0.023170  0.000000  C p z  
  0.913412  0.033919  0.000000  C p z  
  0.935268  0.044667  0.000000  C p z  
  0.957124  0.055416  0.000000  C p z  
  0.978980  0.066165  0.000000  C p z  
  0.815239  0.002030  0.000000  C p z  
  0.837095  0.012779  0.000000  C p z  
  0.858951  0.023528  0.000000  C p z  
  0.880807  0.034277  0.000000  C p z  
  0.902663  0.045026  0.000000  C p z  
  0.924519  0.055775  0.000000  C p z  
  0.946375  0.066523  0.000000  C p z  
  0.968231  0.077272  0.000000  C p z  
  0.990087  0.088021  0.000000  C p z  
  0.782635  0.002389  0.000000  C p z  
  0.804491  0.013137  0.000000  C p z  
  0.826347  0.023886  0.000000  C p z  
  0.848203  0.034635  0.000000  C p z  
  0.870059  0.045384  0.000000  C p z  
  0.891914  0.056133  0.000000  C p z  
  0.913770  0.066882  0.000000  C p z  
  0.935626  0.077630  0.000000  C p z  
  0.957482  0.088379  0.000000  C p z  
  0.979338  0.099128  0.000000  C p z  
  0.750030  0.002747  0.000000  C p z  
  0.771886  0.013496  0.000000  C p z  
  0.793742  0.024245  0.000000  C p z  
  0.815598  0.034993  0.000000  C p z  
  0.837454  0.045742  0.000000  C p z  
  0.859310  0.056491  0.000000  C p z  
  0.881166  0.067240  0.000000  C p z  
  0.903022  0.077989  0.000000  C p z  
  0.924878  0.088738  0.000000  C p z  
  0.946734  0.099486  0.000000  C p z  
  0.968590  0.110235  0.000000  C p z  
  0.990445  0.120984  0.000000  C p z  
  0.717425  0.003105  0.000000  C p z  
  0.739281  0.013854  0.000000  C p z  
  0.761137  0.024603  0.000000  C p z  
  0.782993  0.035352  0.000000  C p z  
  0.804849  0.046101  0.000000  C p z  
  0.826705  0.056849  0.000000  C p z  
  0.848561  0.067598  0.000000  C p z  
  0.870417  0.078347  0.000000  C p z  
  0.892273  0.089096  0.000000  C p z  
  0.914129  0.099845  0.000000  C p z  
  0.935985  0.110594  0.000000  C p z  
  0.957841  0.121342  0.000000  C p z  
  0.979697  0.132091  0.000000  C p z  
  0.684820  0.003464  0.000000  C p z  
  0.706676  0.014212  0.000000  C p z  
  0.728532  0.024961  0.000000  C p z  
  0.750388  0.035710  0.000000  C p z  
  0.772244  0.046459  0.000000  C p z  
  0.794100  0.057208  0.000000  C p z  
  0.815956  0.067957  0.000000  C p z  
  0.837812  0.078705  0.000000  C p z  
  0.859668  0.089454  0.000000  C p z  
  0.881524  0.100203  0.000000  C p z  
  0.903380  0.110952  0.000000  C p z  
  0.925236  0.121701  0.000000  C p z  
  0.947092  0.132450  0.000000  C p z  
  0.968948  0.143198  0.000000  C p z  
  0.990804  0.153947  0.000000  C p z  
  0.652215  0.003822  0.000000  C p z  
  0.674071  0.014571  0.000000  C p z  
  0.695927  0.025319  0.000000  C p z  
  0.717783  0.036068  0.000000  C p z  
  0.739639  0.046817  0.000000  C p z  
  0.761495  0.057566  0.000000  C p z  
  0.783351  0.068315  0.000000  C p z  
  0.805207  0.079064  0.000000  C p z  
  0.827063  0.089812  0.000000  C p z  
  0.848919  0.100561  0.000000  C p z  
  0.870775  0.111310  0.000000  C p z  
  0.892631  0.122059  0.000000  C p z  
  0.914487  0.132808  0.000000  C p z  
  0.936343  0.143557  0.000000  C p z  
  0.958199  0.154306  0.000000  C p z  
  0.980055  0.165054  0.000000  C p z  
  0.619611  0.004180  0.000000  C p z  
  0.641467  0.014929  0.000000  C p z  
  0.663323  0.025678  0.000000  C p z  
  0.685179  0.036427  0.000000  C p z  
  0.707035  0.047175  0.000000  C p z  
  0.728890  0.057924  0.000000  C p z  
  0.750746  0.068673  0.000000  C p z  
  0.772602  0.079422  0.000000  C p z  
  0.794458  0.090171  0.000000  C p z  
  0.816314  0.100920  0.000000  C p z  
  0.838170  0.111668  0.000000  C p z  
  0.860026  0.122417  0.000000  C p z  
  0.881882  0.133166  0.000000  C p z  
  0.903738  0.143915  0.000000  C p z  
  0.925594  0.154664  0.000000  C p z  
  0.947450  0.165413  0.000000  C p z  
  0.969306  0.176161  0.000000  C p z  
  0.991162  0.186910  0.000000  C p z  
  0.587006  0.004538  0.000000  C p z  
  0.608862  0.015287  0.000000  C p z  
  0.630718  0.026036  0.000000  C p z  
  0.652574  0.036785  0.000000  C p z  
  0.674430  0.047534  0.000000  C p z  
  0.696286  0.058283  0.000000  C p z  
  0.718142  0.069031  0.000000  C p z  
  0.739998  0.079780  0.000000  C p z  
  0.761854  0.090529  0.000000  C p z  
  0.783710  0.101278  0.000000  C p z  
  0.805566  0.112027  0.000000  C p z  
  0.827421  0.122776  0.000000  C p z  
  0.849277  0.133524  0.000000  C p z  
  0.871133  0.144273  0.000000  C p z  
  0.892989  0.155022  0.000000  C p z  
  0.914845  0.165771  0.000000  C p z  
  0.936701  0.176520  0.000000  C p z  
  0.958557  0.187269  0.000000  C p z  
  0.980413  0.198017  0.000000  C p z  
  0.554401  0.004897  0.000000  C p z  
  0.576257  0.015646  0.000000  C p z  
  0.598113  0.026394  0.000000  C p z  
  0.619969  0.037143  0.000000  C p z  
  0.641825  0.047892  0.000000  C p z  
  0.663681  0.058641  0.000000  C p z  
  0.685537  0.069390  0.000000  C p z  
  0.707393  0.080139  0.000000  C p z  
  0.729249  0.090887  0.000000  C p z  
  0.751105  0.101636  0.000000  C p z  
  0.772961  0.112385  0.000000  C p z  
  0.794817  0.123134  0.000000  C p z  
  0.816673  0.133883  0.000000  C p z  
  0.838529  0.144632  0.000000  C p z  
  0.860385  0.155380  0.000000  C p z  
  0.882241  0.166129  0.000000  C p z  
  0.904097  0.176878  0.000000  C p z  
  0.925952  0.187627  0.000000  C p z  
  0.947808  0.198376  0.000000  C p z  
  0.969664  0.209125  0.000000  C p z  
  0.991520  0.219873  0.000000  C p z  
  0.521796  0.005255  0.000000  C p z  
  0.543652  0.016004  0.000000  C p z  
  0.565508  0.026753  0.000000  C p z  
  0.587364  0.037501  0.000000  C p z  
  0.609220  0.048250  0.000000  C p z  
  0.631076  0.058999  0.000000  C p z  
  0.652932  0.069748  0.000000  C p z  
  0.674788  0.080497  0.000000  C p z  
  0.696644  0.091246  0.000000  C p z  
  0.718500  0.101995  0.000000  C p z  
  0.740356  0.112743  0.000000  C p z  
  0.762212  0.123492  0.000000  C p z  
  0.784068  0.134241  0.000000  C p z  
  0.805924  0.144990  0.000000  C p z  
  0.827780  0.155739  0.000000  C p z  
  0.849636  0.166488  0.000000  C p z  
  0.871492  0.177236  0.000000  C p z  
  0.893348  0.187985  0.000000  C p z  
  0.915204  0.198734  0.000000  C p z  
  0.937060  0.209483  0.000000  C p z  
  0.958916  0.220232  0.000000  C p z  
  0.980772  0.230981  0.000000  C p z  
  0.489191  0.005613  0.000000  C p z  
  0.511047  0.016362  0.000000  C p z  
  0.532903  0.027111  0.000000  C p z  
  0.554759  0.037860  0.000000  C p z  
  0.576615  0.048609  0.000000  C p z  
  0.598471  0.059357  0.000000  C p z  
  0.620327  0.070106  0.000000  C p z  
  0.642183  0.080855  0.000000  C p z  
  0.664039  0.091604  0.000000  C p z  
  0.685895  0.102353  0.000000  C p z  
  0.707751  0.113102  0.000000  C p z  
  0.729607  0.123850  0.000000  C p z  
  0.751463  0.134599  0.000000  C p z  
  0.773319  0.145348  0.000000  C p z  
  0.795175  0.156097  0.000000  C p z  
  0.817031  0.166846  0.000000  C p z  
  0.838887  0.177595  0.000000  C p z  
  0.860743  0.188343  0.000000  C p z  
  0.882599  0.199092  0.000000  C p z  
  0.904455  0.209841  0.000000  C p z  
  0.926311  0.220590  0.000000  C p z  
  0.948167  0.231339  0.000000  C p z  
  0.970023  0.242088  0.000000  C p z  
  0.991879  0.252836  0.000000  C p z  
  0.456587  0.005972  0.000000  C p z  
  0.478443  0.016720  0.000000  C p z  
  0.500299  0.027469  0.000000  C p z  
  0.522155  0.038218  0.000000  C p z  
  0.544011  0.048967  0.000000  C p z  
  0.565866  0.059716  0.000000  C p z  
  0.587722  0.070465  0.000000  C p z  
  0.609578  0.081213  0.000000  C p z  
  0.631434  0.091962  0.000000  C p z  
  0.653290  0.102711  0.000000  C p z  
  0.675146  0.113460  0.000000  C p z  
  0.697002  0.124209  0.000000  C p z  
  0.718858  0.134958  0.000000  C p z  
  0.740714  0.145706  0.000000  C p z  
  0.762570  0.156455  0.000000  C p z  
  0.784426  0.167204  0.000000  C p z  
  0.806282  0.177953  0.000000  C p z  
  0.828138  0.188702  0.000000  C p z  
  0.849994  0.199451  0.000000  C p z  
  0.871850  0.210199  0.000000  C p z  
  0.893706  0.220948  0.000000  C p z  
  0.915562  0.231697  0.000000  C p z  
  0.937418  0.242446  0.000000  C p z  
  0.959274  0.253195  0.000000  C p z  
  0.981130  0.263944  0.000000  C p z  
  0.423982  0.006330  0.000000  C p z  
  0.445838  0.017079  0.000000  C p z  
  0.467694  0.027828  0.000000  C p z  
  0.489550  0.038576  0.000000  C p z  
  0.511406  0.049325  0.000000  C p z  
  0.533262  0.060074  0.000000  C p z  
  0.555118  0.070823  0.000000  C p z  
  0.576974  0.081572  0.000000  C p z  
  0.598830  0.092321  0.000000  C p z  
  0.620686  0.103069  0.000000  C p z  
  0.642542  0.113818  0.000000  C p z  
  0.664397  0.124567  0.000000  C p z  
  0.686253  0.135316  0.000000  C p z  
  0.708109  0.146065  0.000000  C p z  
  0.729965  0.156814  0.000000  C p z  
  0.751821  0.167562  0.000000  C p z  
  0.773677  0.178311  0.000000  C p z  
  0.795533  0.189060  0.000000  C p z  
  0.817389  0.199809  0.000000  C p z  
  0.839245  0.210558  0.000000  C p z  
  0.861101  0.221307  0.000000  C p z  
  0.882957  0.232055  0.000000  C p z  
  0.904813  0.242804  0.000000  C p z  
  0.926669  0.253553  0.000000  C p z  
  0.948525  0.264302  0.000000  C p z  
  0.970381  0.275051  0.000000  C p z  
  0.992237  0.285800  0.000000  C p z  
  0.391377  0.006688  0.000000  C p z  
  0.413233  0.017437  0.000000  C p z  
  0.435089  0.028186  0.000000  C p z  
  0.456945  0.038935  0.000000  C p z  
  0.478801  0.049684  0.000000  C p z  
  0.500657  0.060432  0.000000  C p z  
  0.522513  0.071181  0.000000  C p z  
  0.544369  0.081930  0.000000  C p z  
  0.566225  0.092679  0.000000  C p z  
  0.588081  0.103428  0.000000  C p z  
  0.609937  0.114177  0.000000  C p z  
  0.631793  0.124925  0.000000  C p z  
  0.653649  0.135674  0.000000  C p z  
  0.675505  0.146423  0.000000  C p z  
  0.697361  0.157172  0.000000  C p z  
  0.719217  0.167921  0.000000  C p z  
  0.741072  0.178670  0.000000  C p z  
  0.762928  0.189418  0.000000  C p z  
  0.784784  0.200167  0.000000  C p z  
  0.806640  0.210916  0.000000  C p z  
  0.828496  0.221665  0.000000  C p z  
  0.850352  0.232414  0.000000  C p z  
  0.872208  0.243163  0.000000  C p z  
  0.894064  0.253911  0.000000  C p z  
  0.915920  0.264660  0.000000  C p z  
  0.937776  0.275409  0.000000  C p z  
  0.959632  0.286158  0.000000  C p z  
  0.981488  0.296907  0.000000  C p z  
  0.358772  0.007046  0.000000  C p z  
  0.380628  0.017795  0.000000  C p z  
  0.402484  0.028544  0.000000  C p z  
  0.424340  0.039293  0.000000  C p z  
  0.446196  0.050042  0.000000  C p z  
  0.468052  0.060791  0.000000  C p z  
  0.489908  0.071539  0.000000  C p z  
  0.511764  0.082288  0.000000  C p z  
  0.533620  0.093037  0.000000  C p z  
  0.555476  0.103786  0.000000  C p z  
  0.577332  0.114535  0.000000  C p z  
  0.599188  0.125284  0.000000  C p z  
  0.621044  0.136032  0.000000  C p z  
  0.642900  0.146781  0.000000  C p z  
  0.664756  0.157530  0.000000  C p z  
  0.686612  0.168279  0.000000  C p z  
  0.708468  0.179028  0.000000  C p z  
  0.730324  0.189777  0.000000  C p z  
  0.752180  0.200525  0.000000  C p z  
  0.774036  0.211274  0.000000  C p z  
  0.795892  0.222023  0.000000  C p z  
  0.817748  0.232772  0.000000  C p z  
  0.839603  0.243521  0.000000  C p z  
  0.861459  0.254270  0.000000  C p z  
  0.883315  0.265019  0.000000  C p z  
  0.905171  0.275767  0.000000  C p z  
  0.927027  0.286516  0.000000  C p z  
  0.948883  0.297265  0.000000  C p z  
  0.970739  0.308014  0.000000  C p z  
  0.992595  0.318763  0.000000  C p z  
  0.326167  0.007405  0.000000  C p z  
  0.348023  0.018154  0.000000  C p z  
  0.369879  0.028902  0.000000  C p z  
  0.391735  0.039651  0.000000  C p z  
  0.413591  0.050400  0.000000  C p z  
  0.435447  0.061149  0.000000  C p z  
  0.457303  0.071898  0.000000  C p z  
  0.479159  0.082647  0.000000  C p z  
  0.501015  0.093395  0.000000  C p z  
  0.522871  0.104144  0.000000  C p z  
  0.544727  0.114893  0.000000  C p z  
  0.566583  0.125642  0.000000  C p z  
  0.588439  0.136391  0.000000  C p z  
  0.610295  0.147140  0.000000  C p z  
  0.632151  0.157888  0.000000  C p z  
  0.654007  0.168637  0.000000  C p z  
  0.675863  0.179386  0.000000  C p z  
  0.697719  0.190135  0.000000  C p z  
  0.719575  0.200884  0.000000  C p z  
  0.741431  0.211633  0.000000  C p z  
  0.763287  0.222381  0.000000  C p z  
  0.785143  0.233130  0.000000  C p z  
  0.806999  0.243879  0.000000  C p z  
  0.828855  0.254628  0.000000  C p z  
  0.850711  0.265377  0.000000  C p z  
  0.872567  0.276126  0.000000  C p z  
  0.894423  0.286874  0.000000  C p z  
  0.916279  0.297623  0.000000  C p z  
  0.938134  0.308372  0.000000  C p z  
  0.959990  0.319121  0.000000  C p z  
  0.981846  0.329870  0.000000  C p z  
  0.293563  0.007763  0.000000  C p z  
  0.315419  0.018512  0.000000  C p z  
  0.337275  0.029261  0.000000  C p z  
  0.359131  0.040010  0.000000  C p z  
  0.380987  0.050758  0.000000  C p z  
  0.402842  0.061507  0.000000  C p z  
  0.424698  0.072256  0.000000  C p z  
  0.446554  0.083005  0.000000  C p z  
  0.468410  0.093754  0.000000  C p z  
  0.490266  0.104503  0.000000  C p z  
  0.512122  0.115251  0.000000  C p z  
  0.533978  0.126000  0.000000  C p z  
  0.555834  0.136749  0.000000  C p z  
  0.577690  0.147498  0.000000  C p z  
  0.599546  0.158247  0.000000  C p z  
  0.621402  0.168996  0.000000  C p z  
  0.643258  0.179744  0.000000  C p z  
  0.665114  0.190493  0.000000  C p z  
  0.686970  0.201242  0.000000  C p z  
  0.708826  0.211991  0.000000  C p z  
  0.730682  0.222740  0.000000  C p z  
  0.752538  0.233489  0.000000  C p z  
  0.774394  0.244237  0.000000  C p z  
  0.796250  0.254986  0.000000  C p z  
  0.818106  0.265735  0.000000  C p z  
  0.839962  0.276484  0.000000  C p z  
  0.861818  0.287233  0.000000  C p z  
  0.883674  0.297982  0.000000  C p z  
  0.905530  0.308730  0.000000  C p z  
  0.927386  0.319479  0.000000  C p z  
  0.949242  0.330228  0.000000  C p z  
  0.971098  0.340977  0.000000  C p z  
  0.992954  0.351726  0.000000  C p z  
  0.260958  0.008121  0.000000  C p z  
  0.282814  0.018870  0.000000  C p z  
  0.304670  0.029619  0.000000  C p z  
  0.326526  0.040368  0.000000  C p z  
  0.348382  0.051117  0.000000  C p z  
  0.370238  0.061866  0.000000  C p z  
  0.392094  0.072614  0.000000  C p z  
  0.413950  0.083363  0.000000  C p z  
  0.435806  0.094112  0.000000  C p z  
  0.457662  0.104861  0.000000  C p z  
  0.479517  0.115610  0.000000  C p z  
  0.501373  0.126359  0.000000  C p z  
  0.523229  0.137107  0.000000  C p z  
  0.545085  0.147856  0.000000  C p z  
  0.566941  0.158605  0.000000  C p z  
  0.588797  0.169354  0.000000  C p z  
  0.610653  0.180103  0.000000  C p z  
  0.632509  0.190852  0.000000  C p z  
  0.654365  0.201600  0.000000  C p z  
  0.676221  0.212349  0.000000  C p z  
  0.698077  0.223098  0.000000  C p z  
  0.719933  0.233847  0.000000  C p z  
  0.741789  0.244596  0.000000  C p z  
  0.763645  0.255345  0.000000  C p z  
  0.785501  0.266093  0.000000  C p z  
  0.807357  0.276842  0.000000  C p z  
  0.829213  0.287591  0.000000  C p z  
  0.851069  0.298340  0.000000  C p z  
  0.872925  0.309089  0.000000  C p z  
  0.894781  0.319838  0.000000  C p z  
  0.916637  0.330586  0.000000  C p z  
  0.938493  0.341335  0.000000  C p z  
  0.960349  0.352084  0.000000  C p z  
  0.982205  0.362833  0.000000  C p z  
  0.228353  0.008480  0.000000  C p z  
  0.250209  0.019228  0.000000  C p z  
  0.272065  0.029977  0.000000  C p z  
  0.293921  0.040726  0.000000  C p z  
  0.315777  0.051475  0.000000  C p z  
  0.337633  0.062224  0.000000  C p z  
  0.359489  0.072973  0.000000  C p z  
  0.381345  0.083721  0.000000  C p z  
  0.403201  0.094470  0.000000  C p z  
  0.425057  0.105219  0.000000  C p z  
  0.446913  0.115968  0.000000  C p z  
  0.468769  0.126717  0.000000  C p z  
  0.490625  0.137466  0.000000  C p z  
  0.512481  0.148214  0.000000  C p z  
  0.534337  0.158963  0.000000  C p z  
  0.556193  0.169712  0.000000  C p z  
  0.578048  0.180461  0.000000  C p z  
  0.599904  0.191210  0.000000  C p z  
  0.621760  0.201959  0.000000  C p z  
  0.643616  0.212708  0.000000  C p z  
  0.665472  0.223456  0.000000  C p z  
  0.687328  0.234205  0.000000  C p z  
  0.709184  0.244954  0.000000  C p z  
  0.731040  0.255703  0.000000  C p z  
  0.752896  0.266452  0.000000  C p z  
  0.774752  0.277201  0.000000  C p z  
  0.796608  0.287949  0.000000  C p z  
  0.818464  0.298698  0.000000  C p z  
  0.840320  0.309447  0.000000  C p z  
  0.862176  0.320196  0.000000  C p z  
  0.884032  0.330945  0.000000  C p z  
  0.905888  0.341694  0.000000  C p z  
  0.927744  0.352442  0.000000  C p z  
  0.949600  0.363191  0.000000  C p z  
  0.971456  0.373940  0.000000  C p z  
  0.993312  0.384689  0.000000  C p z  
  0.195748  0.008838  0.000000  C p z  
  0.217604  0.019587  0.000000  C p z  
  0.239460  0.030336  0.000000  C p z  
  0.261316  0.041084  0.000000  C p z  
  0.283172  0.051833  0.000000  C p z  
  0.305028  0.062582  0.000000  C p z  
  0.326884  0.073331  0.000000  C p z  
  0.348740  0.084080  0.000000  C p z  
  0.370596  0.094829  0.000000  C p z  
  0.392452  0.105577  0.000000  C p z  
  0.414308  0.116326  0.000000  C p z  
  0.436164  0.127075  0.000000  C p z  
  0.458020  0.137824  0.000000  C p z  
  0.479876  0.148573  0.000000  C p z  
  0.501732  0.159322  0.000000  C p z  
  0.523588  0.170070  0.000000  C p z  
  0.545444  0.180819  0.000000  C p z  
  0.567300  0.191568  0.000000  C p z  
  0.589156  0.202317  0.000000  C p z  
  0.611012  0.213066  0.000000  C p z  
  0.632868  0.223815  0.000000  C p z  
  0.654724  0.234563  0.000000  C p z  
  0.676579  0.245312  0.000000  C p z  
  0.698435  0.256061  0.000000  C p z  
  0.720291  0.266810  0.000000  C p z  
  0.742147  0.277559  0.000000  C p z  
  0.764003  0.288308  0.000000  C p z  
  0.785859  0.299056  0.000000  C p z  
  0.807715  0.309805  0.000000  C p z  
  0.829571  0.320554  0.000000  C p z  
  0.851427  0.331303  0.000000  C p z  
  0.873283  0.342052  0.000000  C p z  
  0.895139  0.352801  0.000000  C p z  
  0.916995  0.363550  0.000000  C p z  
  0.938851  0.374298  0.000000  C p z  
  0.960707  0.385047  0.000000  C p z  
  0.982563  0.395796  0.000000  C p z  
  0.163143  0.009196  0.000000  C p z  
  0.184999  0.019945  0.000000  C p z  
  0.206855  0.030694  0.000000  C p z  
  0.228711  0.041443  0.000000  C p z  
  0.250567  0.052192  0.000000  C p z  
  0.272423  0.062940  0.000000  C p z  
  0.294279  0.073689  0.000000  C p z  
  0.316135  0.084438  0.000000  C p z  
  0.337991  0.095187  0.000000  C p z  
  0.359847  0.105936  0.000000  C p z  
  0.381703  0.116685  0.000000  C p z  
  0.403559  0.127433  0.000000  C p z  
  0.425415  0.138182  0.000000  C p z  
  0.447271  0.148931  0.000000  C p z  
  0.469127  0.159680  0.000000  C p z  
  0.490983  0.170429  0.000000  C p z  
  0.512839  0.181178  0.000000  C p z  
  0.534695  0.191926  0.000000  C p z  
  0.556551  0.202675  0.000000  C p z  
  0.578407  0.213424  0.000000  C p z  
  0.600263  0.224173  0.000000  C p z  
  0.622119  0.234922  0.000000  C p z  
  0.643975  0.245671  0.000000  C p z  
  0.665831  0.256419  0.000000  C p z  
  0.687687  0.267168  0.000000  C p z  
  0.709543  0.277917  0.000000  C p z  
  0.731399  0.288666  0.000000  C p z  
  0.753255  0.299415  0.000000  C p z  
  0.775110  0.310164  0.000000  C p z  
  0.796966  0.320912  0.000000  C p z  
  0.818822  0.331661  0.000000  C p z  
  0.840678  0.342410  0.000000  C p z  
  0.862534  0.353159  0.000000  C p z  
  0.884390  0.363908  0.000000  C p z  
  0.906246  0.374657  0.000000  C p z  
  0.928102  0.385405  0.000000  C p z  
  0.949958  0.396154  0.000000  C p z  
  0.971814  0.406903  0.000000  C p z  
  0.993670  0.417652  0.000000  C p z  
  0.130539  0.009555  0.000000  C p z  
  0.152395  0.020303  0.000000  C p z  
  0.174251  0.031052  0.000000  C p z  
  0.196107  0.041801  0.000000  C p z  
  0.217962  0.052550  0.000000  C p z  
  0.239818  0.063299  0.000000  C p z  
  0.261674  0.074048  0.000000  C p z  
  0.283530  0.084796  0.000000  C p z  
  0.305386  0.095545  0.000000  C p z  
  0.327242  0.106294  0.000000  C p z  
  0.349098  0.117043  0.000000  C p z  
  0.370954  0.127792  0.000000  C p z  
  0.392810  0.138541  0.000000  C p z  
  0.414666  0.149289  0.000000  C p z  
  0.436522  0.160038  0.000000  C p z  
  0.458378  0.170787  0.000000  C p z  
  0.480234  0.181536  0.000000  C p z  
  0.502090  0.192285  0.000000  C p z  
  0.523946  0.203034  0.000000  C p z  
  0.545802  0.213782  0.000000  C p z  
  0.567658  0.224531  0.000000  C p z  
  0.589514  0.235280  0.000000  C p z  
  0.611370  0.246029  0.000000  C p z  
  0.633226  0.256778  0.000000  C p z  
  0.655082  0.267527  0.000000  C p z  
  0.676938  0.278275  0.000000  C p z  
  0.698794  0.289024  0.000000  C p z  
  0.720650  0.299773  0.000000  C p z  
  0.742506  0.310522  0.000000  C p z  
  0.764362  0.321271  0.000000  C p z  
  0.786218  0.332020  0.000000  C p z  
  0.808074  0.342768  0.000000  C p z  
  0.829930  0.353517  0.000000  C p z  
  0.851786  0.364266  0.000000  C p z  
  0.873641  0.375015  0.000000  C p z  
  0.895497  0.385764  0.000000  C p z  
  0.917353  0.396513  0.000000  C p z  
  0.939209  0.407261  0.000000  C p z  
  0.961065  0.418010  0.000000  C p z  
  0.982921  0.428759  0.000000  C p z  
  0.097934  0.009913  0.000000  C p z  
  0.119790  0.020662  0.000000  C p z  
  0.141646  0.031410  0.000000  C p z  
  0.163502  0.042159  0.000000  C p z  
  0.185358  0.052908  0.000000  C p z  
  0.207214  0.063657  0.000000  C p z  
  0.229070  0.074406  0.000000  C p z  
  0.250926  0.085155  0.000000  C p z  
  0.272782  0.095903  0.000000  C p z  
  0.294638  0.106652  0.000000  C p z  
  0.316493  0.117401  0.000000  C p z  
  0.338349  0.128150  0.000000  C p z  
  0.360205  0.138899  0.000000  C p z  
  0.382061  0.149648  0.000000  C p z  
  0.403917  0.160397  0.000000  C p z  
  0.425773  0.171145  0.000000  C p z  
  0.447629  0.181894  0.000000  C p z  
  0.469485  0.192643  0.000000  C p z  
  0.491341  0.203392  0.000000  C p z  
  0.513197  0.214141  0.000000  C p z  
  0.535053  0.224890  0.000000  C p z  
  0.556909  0.235638  0.000000  C p z  
  0.578765  0.246387  0.000000  C p z  
  0.600621  0.257136  0.000000  C p z  
  0.622477  0.267885  0.000000  C p z  
  0.644333  0.278634  0.000000  C p z  
  0.666189  0.289383  0.000000  C p z  
  0.688045  0.300131  0.000000  C p z  
  0.709901  0.310880  0.000000  C p z  
  0.731757  0.321629  0.000000  C p z  
  0.753613  0.332378  0.000000  C p z  
  0.775469  0.343127  0.000000  C p z  
  0.797325  0.353876  0.000000  C p z  
  0.819181  0.364624  0.000000  C p z  
  0.841037  0.375373  0.000000  C p z  
  0.862893  0.386122  0.000000  C p z  
  0.884749  0.396871  0.000000  C p z  
  0.906605  0.407620  0.000000  C p z  
  0.928461  0.418369  0.000000  C p z  
  0.950316  0.429117  0.000000  C p z  
  0.972172  0.439866  0.000000  C p z  
  0.994028  0.450615  0.000000  C p z  
  0.065329  0.010271  0.000000  C p z  
  0.087185  0.021020  0.000000  C p z  
  0.109041  0.031769  0.000000  C p z  
  0.130897  0.042518  0.000000  C p z  
  0.152753  0.053266  0.000000  C p z  
  0.174609  0.064015  0.000000  C p z  
  0.196465  0.074764  0.000000  C p z  
  0.218321  0.085513  0.000000  C p z  
  0.240177  0.096262  0.000000  C p z  
  0.262033  0.107011  0.000000  C p z  
  0.283889  0.117759  0.000000  C p z  
  0.305745  0.128508  0.000000  C p z  
  0.327601  0.139257  0.000000  C p z  
  0.349457  0.150006  0.000000  C p z  
  0.371313  0.160755  0.000000  C p z  
  0.393169  0.171504  0.000000  C p z  
  0.415024  0.182252  0.000000  C p z  
  0.436880  0.193001  0.000000  C p z  
  0.458736  0.203750  0.000000  C p z  
  0.480592  0.214499  0.000000  C p z  
  0.502448  0.225248  0.000000  C p z  
  0.524304  0.235997  0.000000  C p z  
  0.546160  0.246745  0.000000  C p z  
  0.568016  0.257494  0.000000  C p z  
  0.589872  0.268243  0.000000  C p z  
  0.611728  0.278992  0.000000  C p z  
  0.633584  0.289741  0.000000  C p z  
  0.655440  0.300490  0.000000  C p z  
  0.677296  0.311239  0.000000  C p z  
  0.699152  0.321987  0.000000  C p z  
  0.721008  0.332736  0.000000  C p z  
  0.742864  0.343485  0.000000  C p z  
  0.764720  0.354234  0.000000  C p z  
  0.786576  0.364983  0.000000  C p z  
  0.808432  0.375732  0.000000  C p z  
  0.830288  0.386480  0.000000  C p z  
  0.852144  0.397229  0.000000  C p z  
  0.874000  0.407978  0.000000  C p z  
  0.895856  0.418727  0.000000  C p z  
  0.917712  0.429476  0.000000  C p z  
  0.939568  0.440225  0.000000  C p z  
  0.961424  0.450973  0.000000  C p z  
  0.983280  0.461722  0.000000  C p z  
  0.032724  0.010629  0.000000  C p z  
  0.054580  0.021378  0.000000  C p z  
  0.076436  0.032127  0.000000  C p z  
  0.098292  0.042876  0.000000  C p z  
  0.120148  0.053625  0.000000  C p z  
  0.142004  0.064374  0.000000  C p z  
  0.163860  0.075122  0.000000  C p z  
  0.185716  0.085871  0.000000  C p z  
  0.207572  0.096620  0.000000  C p z  
  0.229428  0.107369  0.000000  C p z  
  0.251284  0.118118  0.000000  C p z  
  0.273140  0.128867  0.000000  C p z  
  0.294996  0.139615  0.000000  C p z  
  0.316852  0.150364  0.000000  C p z  
  0.338708  0.161113  0.000000  C p z  
  0.360564  0.171862  0.000000  C p z  
  0.382420  0.182611  0.000000  C p z  
  0.404276  0.193360  0.000000  C p z  
  0.426132  0.204108  0.000000  C p z  
  0.447988  0.214857  0.000000  C p z  
  0.469844  0.225606  0.000000  C p z  
  0.491700  0.236355  0.000000  C p z  
  0.513555  0.247104  0.000000  C p z  
  0.535411  0.257853  0.000000  C p z  
  0.557267  0.268601  0.000000  C p z  
  0.579123  0.279350  0.000000  C p z  
  0.600979  0.290099  0.000000  C p z  
  0.622835  0.300848  0.000000  C p z  
  0.644691  0.311597  0.000000  C p z  
  0.666547  0.322346  0.000000  C p z  
  0.688403  0.333094  0.000000  C p z  
  0.710259  0.343843  0.000000  C p z  
  0.732115  0.354592  0.000000  C p z  
  0.753971  0.365341  0.000000  C p z  
  0.775827  0.376090  0.000000  C p z  
  0.797683  0.386839  0.000000  C p z  
  0.819539  0.397587  0.000000  C p z  
  0.841395  0.408336  0.000000  C p z  
  0.863251  0.419085  0.000000  C p z  
  0.885107  0.429834  0.000000  C p z  
  0.906963  0.440583  0.000000  C p z  
  0.928819  0.451332  0.000000  C p z  
  0.950675  0.462080  0.000000  C p z  
  0.972531  0.472829  0.000000  C p z  
  0.994387  0.483578  0.000000  C p z  
  0.000119  0.010988  0.000000  C p z  
  0.021975  0.021737  0.000000  C p z  
  0.043831  0.032485  0.000000  C p z  
  0.065687  0.043234  0.000000  C p z  
  0.087543  0.053983  0.000000  C p z  
  0.109399  0.064732  0.000000  C p z  
  0.131255  0.075481  0.000000  C p z  
  0.153111  0.086230  0.000000  C p z  
  0.174967  0.096978  0.000000  C p z  
  0.196823  0.107727  0.000000  C p z  
  0.218679  0.118476  0.000000  C p z  
  0.240535  0.129225  0.000000  C p z  
  0.262391  0.139974  0.000000  C p z  
  0.284247  0.150723  0.000000  C p z  
  0.306103  0.161471  0.000000  C p z  
  0.327959  0.172220  0.000000  C p z  
  0.349815  0.182969  0.000000  C p z  
  0.371671  0.193718  0.000000  C p z  
  0.393527  0.204467  0.000000  C p z  
  0.415383  0.215216  0.000000  C p z  
  0.437239  0.225964  0.000000  C p z  
  0.459095  0.236713  0.000000  C p z  
  0.480951  0.247462  0.000000  C p z  
  0.502807  0.258211  0.000000  C p z  
  0.524663  0.268960  0.000000  C p z  
  0.546519  0.279709  0.000000  C p z  
  0.568375  0.290457  0.000000  C p z  
  0.590231  0.301206  0.000000  C p z  
  0.612086  0.311955  0.000000  C p z  
  0.633942  0.322704  0.000000  C p z  
  0.655798  0.333453  0.000000  C p z  
  0.677654  0.344202  0.000000  C p z  
  0.699510  0.354950  0.000000  C p z  
  0.721366  0.365699  0.000000  C p z  
  0.743222  0.376448  0.000000  C p z  
  0.765078  0.387197  0.000000  C p z  
  0.786934  0.397946  0.000000  C p z  
  0.808790  0.408695  0.000000  C p z  
  0.830646  0.419443  0.000000  C p z  
  0.852502  0.430192  0.000000  C p z  
  0.874358  0.440941  0.000000  C p z  
  0.896214  0.451690  0.000000  C p z  
  0.918070  0.462439  0.000000  C p z  
  0.939926  0.473188  0.000000  C p z  
  0.961782  0.483936  0.000000  C p z  
  0.983638  0.494685  0.000000  C p z  
  0.011227  0.032844  0.000000  C p z  
  0.033083  0.043593  0.000000  C p z  
  0.054938  0.054341  0.000000  C p z  
  0.076794  0.065090  0.000000  C p z  
  0.098650  0.075839  0.000000  C p z  
  0.120506  0.086588  0.000000  C p z  
  0.142362  0.097337  0.000000  C p z  
  0.164218  0.108086  0.000000  C p z  
  0.186074  0.118834  0.000000  C p z  
  0.207930  0.129583  0.000000  C p z  