generated by phonopy
   1.0
    25.1356945037758877    0.0000000000000000    0.0000000000000000
   -12.5678472518879438   21.7681499820348066    0.0000000000000000
     0.0000000000000000    0.0000000000000000   20.0000000000000000
C
 252
Direct
  0.1044212579999999  0.7363061310000003  0.3881790039999999  C p z   
  0.2472783919999999  0.1648775780000004  0.3881790039999999  C p z   
  0.3901355259999999  0.5934489960000005  0.3881790039999999  C p z   
  0.5329926609999999  0.0220204350000005  0.3881790039999999  C p z  
  0.6758497950000000  0.4505918620000004  0.3881790039999999  C p z  
  0.8187069290000000  0.8791632650000005  0.3881790039999999  C p z  
  0.9615641229999999  0.3077346980000005  0.3881790039999999  C p z  
  0.1255949430000000  0.7991653080000005  0.3881790039999999  C p z  
  0.2684520779999999  0.2277366960000004  0.3881790039999999  C p z  
  0.4113092420000000  0.6563081140000004  0.3881790039999999  C p z  
  0.5541663760000000  0.0848795470000004  0.3881790039999999  C p z  
  0.6970235109999999  0.5134509800000004  0.3881790039999999  C p z  
  0.8398806449999999  0.9420223830000005  0.3881790039999999  C p z  
  0.9827378389999999  0.3705938450000004  0.3881790039999999  C p z  
  0.0036277899999999  0.2870338560000005  0.3881790039999999  C p z  
  0.1464849410000000  0.7156052590000006  0.3881790039999999  C p z  
  0.2893420750000000  0.1441767210000004  0.3881790039999999  C p z  
  0.4321992099999999  0.5727481240000005  0.3881790039999999  C p z  
  0.5750563739999999  0.0013195780000005  0.3881790039999999  C p z  
  0.7179135079999999  0.4298909900000005  0.3881790039999999  C p z  
  0.8607706420000000  0.8584624530000005  0.3881790039999999  C p z  
  0.0824008139999994  0.2472783919999999  0.3881790039999999  C p z  
  0.2252579329999995  0.6758497950000000  0.3881790039999999  C p z  
  0.3681151269999996  0.1044212579999999  0.3881790039999999  C p z  
  0.5109722259999994  0.5329926610000000  0.3881790039999999  C p z  
  0.6538294249999994  0.9615641229999999  0.3881790039999999  C p z  
  0.7966865299999994  0.3901355259999998  0.3881790039999999  C p z  
  0.9395436639999994  0.8187069290000000  0.3881790039999999  C p z  
  0.0220204350000005  0.4890277740000006  0.3881790039999999  C p z  
  0.1648775780000005  0.9175991860000006  0.3881790039999999  C p z  
  0.3077346980000005  0.3461705750000005  0.3881790039999999  C p z  
  0.4505918620000005  0.7747420670000005  0.3881790039999999  C p z  
  0.5934489960000005  0.2033134700000005  0.3881790039999999  C p z  
  0.7363061310000003  0.6318848730000004  0.3881790039999999  C p z  
  0.8791632650000005  0.0604563360000005  0.3881790039999999  C p z  
  0.0013195780000005  0.4262632040000006  0.3881790039999999  C p z  
  0.1441767210000005  0.8548346460000005  0.3881790039999999  C p z  
  0.2870338560000005  0.2834060660000006  0.3881790039999999  C p z  
  0.4298909900000005  0.7119774820000007  0.3881790039999999  C p z  
  0.5727481240000005  0.1405489140000006  0.3881790039999999  C p z  
  0.7156052590000006  0.5691203180000006  0.3881790039999999  C p z  
  0.8584624530000005  0.9976918110000005  0.3881790039999999  C p z  
  0.0407153819999995  0.2684520779999999  0.3881790039999999  C p z  
  0.1835725309999995  0.6970235110000000  0.3881790039999999  C p z  
  0.3264296349999994  0.1255949429999999  0.3881790039999999  C p z  
  0.4692868289999995  0.5541663760000000  0.3881790039999999  C p z  
  0.6121439939999994  0.9827378389999999  0.3881790039999999  C p z  
  0.7550011279999995  0.4113092419999999  0.3881790039999999  C p z  
  0.8978582619999994  0.8398806449999999  0.3881790039999999  C p z  
  0.0848795470000005  0.5307131710000006  0.3881790039999999  C p z  
  0.2277366960000005  0.9592846180000005  0.3881790039999999  C p z  
  0.3705938450000005  0.3878560060000005  0.3881790039999999  C p z  
  0.5134509800000004  0.8164274690000005  0.3881790039999999  C p z  
  0.6563081140000004  0.2449988720000005  0.3881790039999999  C p z  
  0.7991653080000005  0.6735703650000007  0.3881790039999999  C p z  
  0.9420223830000005  0.1021417380000006  0.3881790039999999  C p z  
  0.1405489140000006  0.5678007900000002  0.3881790039999999  C p z  
  0.2834060660000006  0.9963722100000001  0.3881790039999999  C p z  
  0.4262632040000006  0.4249436260000001  0.3881790039999999  C p z  
  0.5691203180000006  0.8535150590000000  0.3881790039999999  C p z  
  0.7119774820000007  0.2820864920000001  0.3881790039999999  C p z  
  0.8548346460000005  0.7106579250000000  0.3881790039999999  C p z  
  0.9976918110000005  0.1392293580000000  0.3881790039999999  C p z  
  0.0604563360000005  0.1812930710000000  0.3881790039999999  C p z  
  0.2033134700000006  0.6098644740000001  0.3881790039999999  C p z  
  0.3461705750000006  0.0384358770000001  0.3881790039999999  C p z  
  0.4890277740000006  0.4670073390000001  0.3881790039999999  C p z  
  0.6318848730000004  0.8955787420000001  0.3881790039999999  C p z  
  0.7747420670000005  0.3241502050000000  0.3881790039999999  C p z  
  0.9175991860000006  0.7527216080000001  0.3881790039999999  C p z  
  0.0023081889999995  0.8607706420000000  0.3881790039999999  C p z  
  0.1451653539999995  0.2893420749999999  0.3881790039999999  C p z  
  0.2880225179999993  0.7179135079999999  0.3881790039999999  C p z  
  0.4308796819999994  0.1464849410000000  0.3881790039999999  C p z  
  0.5737367959999994  0.5750563739999999  0.3881790039999999  C p z  
  0.7165939339999994  0.0036277899999999  0.3881790039999999  C p z  
  0.8594510859999994  0.4321992099999999  0.3881790039999999  C p z  
  0.0579776169999995  0.8978582619999994  0.3881790039999999  C p z  
  0.2008346919999995  0.3264296349999994  0.3881790039999999  C p z  
  0.3436918859999996  0.7550011279999995  0.3881790039999999  C p z  
  0.4865490199999996  0.1835725309999995  0.3881790039999999  C p z  
  0.6294061549999995  0.6121439939999995  0.3881790039999999  C p z  
  0.7722633039999995  0.0407153819999995  0.3881790039999999  C p z  
  0.9151204529999996  0.4692868289999995  0.3881790039999999  C p z  
  0.1208367349999995  0.9395436639999994  0.3881790039999999  C p z  
  0.2636938689999997  0.3681151269999995  0.3881790039999999  C p z  
  0.4065510039999995  0.7966865299999994  0.3881790039999999  C p z  
  0.5494081379999995  0.2252579329999995  0.3881790039999999  C p z  
  0.6922653019999995  0.6538294249999994  0.3881790039999999  C p z  
  0.8351224219999995  0.0824008139999994  0.3881790039999999  C p z  
  0.9779795649999995  0.5109722259999994  0.3881790039999999  C p z  
  0.1415375469999995  0.0023081889999995  0.3881790039999999  C p z  
  0.2843947409999994  0.4308796819999993  0.3881790039999999  C p z  
  0.4272518759999995  0.8594510859999994  0.3881790039999999  C p z  
  0.5701090099999995  0.2880225179999993  0.3881790039999999  C p z  
  0.7129661439999995  0.7165939339999994  0.3881790039999999  C p z  
  0.8558232789999995  0.1451653539999995  0.3881790039999999  C p z  
  0.9986804219999995  0.5737367959999995  0.3881790039999999  C p z  
  0.0172621610000001  0.6294061549999996  0.3881790039999999  C p z  
  0.1601193550000001  0.0579776169999995  0.3881790039999999  C p z  
  0.3029764890000001  0.4865490199999995  0.3881790039999999  C p z  
  0.4458336240000000  0.9151204529999996  0.3881790039999999  C p z  
  0.5886907580000000  0.3436918859999995  0.3881790039999999  C p z  
  0.7315479220000001  0.7722633039999995  0.3881790039999999  C p z  
  0.8744050570000000  0.2008346919999995  0.3881790039999999  C p z  
  0.0384358770000001  0.6922653019999996  0.3881790039999999  C p z  
  0.1812930710000000  0.1208367349999995  0.3881790039999999  C p z  
  0.3241502050000000  0.5494081379999995  0.3881790039999999  C p z  
  0.4670073390000001  0.9779795649999995  0.3881790039999999  C p z  
  0.6098644740000001  0.4065510039999995  0.3881790039999999  C p z  
  0.7527216080000001  0.8351224219999995  0.3881790039999999  C p z  
  0.8955787420000001  0.2636938689999996  0.3881790039999999  C p z  
  0.1392293580000000  0.1415375469999995  0.3881790039999999  C p z  
  0.2820864920000001  0.5701090099999995  0.3881790039999999  C p z  
  0.4249436260000001  0.9986804219999995  0.3881790039999999  C p z  
  0.5678007900000001  0.4272518759999994  0.3881790039999999  C p z  
  0.7106579250000000  0.8558232789999995  0.3881790039999999  C p z  
  0.8535150590000000  0.2843947409999993  0.3881790039999999  C p z  
  0.9963722100000001  0.7129661439999995  0.3881790039999999  C p z  
  0.1021417380000006  0.1601193550000000  0.3881790039999999  C p z  
  0.2449988720000005  0.5886907580000000  0.3881790039999999  C p z  
  0.3878560060000006  0.0172621610000001  0.3881790039999999  C p z  
  0.5307131710000005  0.4458336240000000  0.3881790039999999  C p z  
  0.6735703650000006  0.8744050570000000  0.3881790039999999  C p z  
  0.8164274690000005  0.3029764890000000  0.3881790039999999  C p z  
  0.9592846180000005  0.7315479220000001  0.3881790039999999  C p z  
  0.1044212579999999  0.3681151269999995  0.6118209960000001  C p z  
  0.3901355259999999  0.7966865299999994  0.6118209960000001  C p z  
  0.2472783919999999  0.0824008139999994  0.6118209960000001  C p z  
  0.5329926609999999  0.5109722259999994  0.6118209960000001  C p z  
  0.8187069290000000  0.9395436639999994  0.6118209960000001  C p z  
  0.6758497950000000  0.2252579329999995  0.6118209960000001  C p z  
  0.9615641229999999  0.6538294249999994  0.6118209960000001  C p z  
  0.0036277899999999  0.7165939339999994  0.6118209960000001  C p z  
  0.1464849410000000  0.4308796819999993  0.6118209960000001  C p z  
  0.4321992099999999  0.8594510859999994  0.6118209960000001  C p z  
  0.2893420750000000  0.1451653539999995  0.6118209960000001  C p z  
  0.5750563739999999  0.5737367959999995  0.6118209960000001  C p z  
  0.7179135079999999  0.2880225179999993  0.6118209960000001  C p z  
  0.8607706420000000  0.0023081889999995  0.6118209960000001  C p z  
  0.1255949429999999  0.3264296349999994  0.6118209960000001  C p z  
  0.4113092420000000  0.7550011279999995  0.6118209960000001  C p z  
  0.2684520779999999  0.0407153819999995  0.6118209960000001  C p z  
  0.5541663760000000  0.4692868289999995  0.6118209960000001  C p z  
  0.8398806449999999  0.8978582619999994  0.6118209960000001  C p z  
  0.6970235109999999  0.1835725309999995  0.6118209960000001  C p z  
  0.9827378389999999  0.6121439939999995  0.6118209960000001  C p z  
  0.0220204350000005  0.5329926610000000  0.6118209960000001  C p z  
  0.3077346980000005  0.9615641229999999  0.6118209960000001  C p z  
  0.1648775780000005  0.2472783919999999  0.6118209960000001  C p z  
  0.4505918620000005  0.6758497950000000  0.6118209960000001  C p z  
  0.5934489960000005  0.3901355259999998  0.6118209960000001  C p z  
  0.8791632650000005  0.8187069290000000  0.6118209960000001  C p z  
  0.7363061310000003  0.1044212579999999  0.6118209960000001  C p z  
  0.0824008139999994  0.8351224219999995  0.6118209960000001  C p z  
  0.2252579329999995  0.5494081379999995  0.6118209960000001  C p z  
  0.5109722259999994  0.9779795649999995  0.6118209960000001  C p z  
  0.3681151269999996  0.2636938689999996  0.6118209960000001  C p z  
  0.6538294249999994  0.6922653019999996  0.6118209960000001  C p z  
  0.7966865299999994  0.4065510039999995  0.6118209960000001  C p z  
  0.9395436639999994  0.1208367349999995  0.6118209960000001  C p z  
  0.0407153819999995  0.7722633039999995  0.6118209960000001  C p z  
  0.1835725309999995  0.4865490199999995  0.6118209960000001  C p z  
  0.4692868289999995  0.9151204529999996  0.6118209960000001  C p z  
  0.3264296349999994  0.2008346919999995  0.6118209960000001  C p z  
  0.6121439939999994  0.6294061549999996  0.6118209960000001  C p z  
  0.7550011279999995  0.3436918859999995  0.6118209960000001  C p z  
  0.8978582619999994  0.0579776169999995  0.6118209960000001  C p z  
  0.0013195780000005  0.5750563739999999  0.6118209960000001  C p z  
  0.1441767210000004  0.2893420749999999  0.6118209960000001  C p z  
  0.4298909900000005  0.7179135079999999  0.6118209960000001  C p z  
  0.2870338560000005  0.0036277899999999  0.6118209960000001  C p z  
  0.5727481240000005  0.4321992099999999  0.6118209960000001  C p z  
  0.8584624530000005  0.8607706420000000  0.6118209960000001  C p z  
  0.7156052590000006  0.1464849410000000  0.6118209960000001  C p z  
  0.1451653539999995  0.8558232789999995  0.6118209960000001  C p z  
  0.0023081889999995  0.1415375469999995  0.6118209960000001  C p z  
  0.2880225179999993  0.5701090099999995  0.6118209960000001  C p z  
  0.5737367959999994  0.9986804219999995  0.6118209960000001  C p z  
  0.4308796819999994  0.2843947409999993  0.6118209960000001  C p z  
  0.7165939339999994  0.7129661439999995  0.6118209960000001  C p z  
  0.8594510859999994  0.4272518759999994  0.6118209960000001  C p z  
  0.2008346919999995  0.8744050570000000  0.6118209960000001  C p z  
  0.0579776169999995  0.1601193550000000  0.6118209960000001  C p z  
  0.3436918859999996  0.5886907580000000  0.6118209960000001  C p z  
  0.4865490199999996  0.3029764890000000  0.6118209960000001  C p z  
  0.7722633039999995  0.7315479220000001  0.6118209960000001  C p z  
  0.6294061549999995  0.0172621610000001  0.6118209960000001  C p z  
  0.9151204529999996  0.4458336240000000  0.6118209960000001  C p z  
  0.2636938689999997  0.8955787420000001  0.6118209960000001  C p z  
  0.1208367349999995  0.1812930710000000  0.6118209960000001  C p z  
  0.4065510039999995  0.6098644740000001  0.6118209960000001  C p z  
  0.5494081379999995  0.3241502050000000  0.6118209960000001  C p z  
  0.8351224219999995  0.7527216080000001  0.6118209960000001  C p z  
  0.6922653019999995  0.0384358770000001  0.6118209960000001  C p z  
  0.9779795649999995  0.4670073390000001  0.6118209960000001  C p z  
  0.0848795470000005  0.5541663760000000  0.6118209960000001  C p z  
  0.3705938450000005  0.9827378389999999  0.6118209960000001  C p z  
  0.2277366960000004  0.2684520779999999  0.6118209960000001  C p z  
  0.5134509800000004  0.6970235110000000  0.6118209960000001  C p z  
  0.6563081140000004  0.4113092419999999  0.6118209960000001  C p z  
  0.9420223830000005  0.8398806449999999  0.6118209960000001  C p z  
  0.7991653080000005  0.1255949429999999  0.6118209960000001  C p z  
  0.1405489140000006  0.5727481240000005  0.6118209960000001  C p z  
  0.2834060660000006  0.2870338560000005  0.6118209960000001  C p z  
  0.5691203180000006  0.7156052590000006  0.6118209960000001  C p z  
  0.4262632040000006  0.0013195780000005  0.6118209960000001  C p z  
  0.7119774820000007  0.4298909900000005  0.6118209960000001  C p z  
  0.9976918110000005  0.8584624530000005  0.6118209960000001  C p z  
  0.8548346460000005  0.1441767210000004  0.6118209960000001  C p z  
  0.0604563360000006  0.8791632650000005  0.6118209960000001  C p z  
  0.2033134700000006  0.5934489960000005  0.6118209960000001  C p z  
  0.3461705750000006  0.3077346980000005  0.6118209960000001  C p z  
  0.6318848730000004  0.7363061310000003  0.6118209960000001  C p z  
  0.4890277740000006  0.0220204350000005  0.6118209960000001  C p z  
  0.7747420670000005  0.4505918620000004  0.6118209960000001  C p z  
  0.9175991860000006  0.1648775780000004  0.6118209960000001  C p z  
  0.1021417380000006  0.9420223830000005  0.6118209960000001  C p z  
  0.2449988720000005  0.6563081140000004  0.6118209960000001  C p z  
  0.3878560060000006  0.3705938450000004  0.6118209960000001  C p z  
  0.6735703650000006  0.7991653080000005  0.6118209960000001  C p z  
  0.5307131710000005  0.0848795470000004  0.6118209960000001  C p z  
  0.8164274690000005  0.5134509800000004  0.6118209960000001  C p z  
  0.9592846180000005  0.2277366960000004  0.6118209960000001  C p z  
  0.1392293580000000  0.9976918110000005  0.6118209960000001  C p z  
  0.2820864920000001  0.7119774820000007  0.6118209960000001  C p z  
  0.4249436260000001  0.4262632040000006  0.6118209960000001  C p z  
  0.7106579250000000  0.8548346460000005  0.6118209960000001  C p z  
  0.5678007900000001  0.1405489140000006  0.6118209960000001  C p z  
  0.8535150590000000  0.5691203180000006  0.6118209960000001  C p z  
  0.9963722100000001  0.2834060660000006  0.6118209960000001  C p z  
  0.0384358770000000  0.3461705750000005  0.6118209960000001  C p z  
  0.3241502050000000  0.7747420670000005  0.6118209960000001  C p z  
  0.1812930710000000  0.0604563360000005  0.6118209960000001  C p z  
  0.4670073390000001  0.4890277740000006  0.6118209960000001  C p z  
  0.7527216080000001  0.9175991860000006  0.6118209960000001  C p z  
  0.6098644740000001  0.2033134700000005  0.6118209960000001  C p z  
  0.8955787420000001  0.6318848730000004  0.6118209960000001  C p z  
  0.0172621610000001  0.3878560060000005  0.6118209960000001  C p z  
  0.3029764890000001  0.8164274690000005  0.6118209960000001  C p z  
  0.1601193550000001  0.1021417380000006  0.6118209960000001  C p z  
  0.4458336240000000  0.5307131710000006  0.6118209960000001  C p z  
  0.7315479220000001  0.9592846180000005  0.6118209960000001  C p z  
  0.5886907580000000  0.2449988720000005  0.6118209960000001  C p z  
  0.8744050570000000  0.6735703650000007  0.6118209960000001  C p z  
  0.2843947409999994  0.8535150590000000  0.6118209960000001  C p z  
  0.1415375469999995  0.1392293580000000  0.6118209960000001  C p z  
  0.4272518759999995  0.5678007900000002  0.6118209960000001  C p z  
  0.7129661439999995  0.9963722100000001  0.6118209960000001  C p z  
  0.5701090099999995  0.2820864920000001  0.6118209960000001  C p z  
  0.8558232789999995  0.7106579250000000  0.6118209960000001  C p z  
  0.9986804219999995  0.4249436260000001  0.6118209960000001  C p z  
