K-Path Generated by VASPKIT.
   60
Line-Mode
Reciprocal
   0.000000000   0.0000000000   -0.25000000000     Z
   0.0000000000   0.0000000000   0.0000000000     GAMMA

   0.0000000000   0.0000000000   0.0000000000     GAMMA
   0.0000000000   0.0000000000   0.25000000000     Z
