POSCAR Gen by MATLAB
1
  10.000000  0.000000  0.000000
  0.000000  10.000000  0.000000
  0.000000  0.000000  1.000000
Cd As 
  100 100 
Direct
  0.050000  0.050000  0.250000  
  0.150000  0.050000  0.250000  
  0.250000  0.050000  0.250000  
  0.350000  0.050000  0.250000  
  0.450000  0.050000  0.250000  
  0.550000  0.050000  0.250000  
  0.650000  0.050000  0.250000  
  0.750000  0.050000  0.250000  
  0.850000  0.050000  0.250000  
  0.950000  0.050000  0.250000  
  0.050000  0.150000  0.250000  
  0.150000  0.150000  0.250000  
  0.250000  0.150000  0.250000  
  0.350000  0.150000  0.250000  
  0.450000  0.150000  0.250000  
  0.550000  0.150000  0.250000  
  0.650000  0.150000  0.250000  
  0.750000  0.150000  0.250000  
  0.850000  0.150000  0.250000  
  0.950000  0.150000  0.250000  
  0.050000  0.250000  0.250000  
  0.150000  0.250000  0.250000  
  0.250000  0.250000  0.250000  
  0.350000  0.250000  0.250000  
  0.450000  0.250000  0.250000  
  0.550000  0.250000  0.250000  
  0.650000  0.250000  0.250000  
  0.750000  0.250000  0.250000  
  0.850000  0.250000  0.250000  
  0.950000  0.250000  0.250000  
  0.050000  0.350000  0.250000  
  0.150000  0.350000  0.250000  
  0.250000  0.350000  0.250000  
  0.350000  0.350000  0.250000  
  0.450000  0.350000  0.250000  
  0.550000  0.350000  0.250000  
  0.650000  0.350000  0.250000  
  0.750000  0.350000  0.250000  
  0.850000  0.350000  0.250000  
  0.950000  0.350000  0.250000  
  0.050000  0.450000  0.250000  
  0.150000  0.450000  0.250000  
  0.250000  0.450000  0.250000  
  0.350000  0.450000  0.250000  
  0.450000  0.450000  0.250000  
  0.550000  0.450000  0.250000  
  0.650000  0.450000  0.250000  
  0.750000  0.450000  0.250000  
  0.850000  0.450000  0.250000  
  0.950000  0.450000  0.250000  
  0.050000  0.550000  0.250000  
  0.150000  0.550000  0.250000  
  0.250000  0.550000  0.250000  
  0.350000  0.550000  0.250000  
  0.450000  0.550000  0.250000  
  0.550000  0.550000  0.250000  
  0.650000  0.550000  0.250000  
  0.750000  0.550000  0.250000  
  0.850000  0.550000  0.250000  
  0.950000  0.550000  0.250000  
  0.050000  0.650000  0.250000  
  0.150000  0.650000  0.250000  
  0.250000  0.650000  0.250000  
  0.350000  0.650000  0.250000  
  0.450000  0.650000  0.250000  
  0.550000  0.650000  0.250000  
  0.650000  0.650000  0.250000  
  0.750000  0.650000  0.250000  
  0.850000  0.650000  0.250000  
  0.950000  0.650000  0.250000  
  0.050000  0.750000  0.250000  
  0.150000  0.750000  0.250000  
  0.250000  0.750000  0.250000  
  0.350000  0.750000  0.250000  
  0.450000  0.750000  0.250000  
  0.550000  0.750000  0.250000  
  0.650000  0.750000  0.250000  
  0.750000  0.750000  0.250000  
  0.850000  0.750000  0.250000  
  0.950000  0.750000  0.250000  
  0.050000  0.850000  0.250000  
  0.150000  0.850000  0.250000  
  0.250000  0.850000  0.250000  
  0.350000  0.850000  0.250000  
  0.450000  0.850000  0.250000  
  0.550000  0.850000  0.250000  
  0.650000  0.850000  0.250000  
  0.750000  0.850000  0.250000  
  0.850000  0.850000  0.250000  
  0.950000  0.850000  0.250000  
  0.050000  0.950000  0.250000  
  0.150000  0.950000  0.250000  
  0.250000  0.950000  0.250000  
  0.350000  0.950000  0.250000  
  0.450000  0.950000  0.250000  
  0.550000  0.950000  0.250000  
  0.650000  0.950000  0.250000  
  0.750000  0.950000  0.250000  
  0.850000  0.950000  0.250000  
  0.950000  0.950000  0.250000  
  0.050000  0.050000  0.750000  
  0.150000  0.050000  0.750000  
  0.250000  0.050000  0.750000  
  0.350000  0.050000  0.750000  
  0.450000  0.050000  0.750000  
  0.550000  0.050000  0.750000  
  0.650000  0.050000  0.750000  
  0.750000  0.050000  0.750000  
  0.850000  0.050000  0.750000  
  0.950000  0.050000  0.750000  
  0.050000  0.150000  0.750000  
  0.150000  0.150000  0.750000  
  0.250000  0.150000  0.750000  
  0.350000  0.150000  0.750000  
  0.450000  0.150000  0.750000  
  0.550000  0.150000  0.750000  
  0.650000  0.150000  0.750000  
  0.750000  0.150000  0.750000  
  0.850000  0.150000  0.750000  
  0.950000  0.150000  0.750000  
  0.050000  0.250000  0.750000  
  0.150000  0.250000  0.750000  
  0.250000  0.250000  0.750000  
  0.350000  0.250000  0.750000  
  0.450000  0.250000  0.750000  
  0.550000  0.250000  0.750000  
  0.650000  0.250000  0.750000  
  0.750000  0.250000  0.750000  
  0.850000  0.250000  0.750000  
  0.950000  0.250000  0.750000  
  0.050000  0.350000  0.750000  
  0.150000  0.350000  0.750000  
  0.250000  0.350000  0.750000  
  0.350000  0.350000  0.750000  
  0.450000  0.350000  0.750000  
  0.550000  0.350000  0.750000  
  0.650000  0.350000  0.750000  
  0.750000  0.350000  0.750000  
  0.850000  0.350000  0.750000  
  0.950000  0.350000  0.750000  
  0.050000  0.450000  0.750000  
  0.150000  0.450000  0.750000  
  0.250000  0.450000  0.750000  
  0.350000  0.450000  0.750000  
  0.450000  0.450000  0.750000  
  0.550000  0.450000  0.750000  
  0.650000  0.450000  0.750000  
  0.750000  0.450000  0.750000  
  0.850000  0.450000  0.750000  
  0.950000  0.450000  0.750000  
  0.050000  0.550000  0.750000  
  0.150000  0.550000  0.750000  
  0.250000  0.550000  0.750000  
  0.350000  0.550000  0.750000  
  0.450000  0.550000  0.750000  
  0.550000  0.550000  0.750000  
  0.650000  0.550000  0.750000  
  0.750000  0.550000  0.750000  
  0.850000  0.550000  0.750000  
  0.950000  0.550000  0.750000  
  0.050000  0.650000  0.750000  
  0.150000  0.650000  0.750000  
  0.250000  0.650000  0.750000  
  0.350000  0.650000  0.750000  
  0.450000  0.650000  0.750000  
  0.550000  0.650000  0.750000  
  0.650000  0.650000  0.750000  
  0.750000  0.650000  0.750000  
  0.850000  0.650000  0.750000  
  0.950000  0.650000  0.750000  
  0.050000  0.750000  0.750000  
  0.150000  0.750000  0.750000  
  0.250000  0.750000  0.750000  
  0.350000  0.750000  0.750000  
  0.450000  0.750000  0.750000  
  0.550000  0.750000  0.750000  
  0.650000  0.750000  0.750000  
  0.750000  0.750000  0.750000  
  0.850000  0.750000  0.750000  
  0.950000  0.750000  0.750000  
  0.050000  0.850000  0.750000  
  0.150000  0.850000  0.750000  
  0.250000  0.850000  0.750000  
  0.350000  0.850000  0.750000  
  0.450000  0.850000  0.750000  
  0.550000  0.850000  0.750000  
  0.650000  0.850000  0.750000  
  0.750000  0.850000  0.750000  
  0.850000  0.850000  0.750000  
  0.950000  0.850000  0.750000  
  0.050000  0.950000  0.750000  
  0.150000  0.950000  0.750000  
  0.250000  0.950000  0.750000  
  0.350000  0.950000  0.750000  
  0.450000  0.950000  0.750000  
  0.550000  0.950000  0.750000  
  0.650000  0.950000  0.750000  
  0.750000  0.950000  0.750000  
  0.850000  0.950000  0.750000  
  0.950000  0.950000  0.750000  
  