POSCAR Gen by MATLAB
1
  10.278000  0.000000  0.000000
  -5.139000  8.901009  0.000000
  1.713000  0.989001  8.389667
Tm Mg Ga O 
  9 9 9 36 
Direct
  0.000000  0.000000  0.000000  
  0.000000  0.333333  0.000000  
  0.000000  0.666667  0.000000  
  0.333333  0.000000  0.000000  
  0.333333  0.333333  0.000000  
  0.333333  0.666667  0.000000  
  0.666667  0.000000  0.000000  
  0.666667  0.333333  0.000000  
  0.666667  0.666667  0.000000  
  0.143133  0.071567  0.355900  
  0.143133  0.404900  0.355900  
  0.143133  0.738233  0.355900  
  0.476467  0.071567  0.355900  
  0.476467  0.404900  0.355900  
  0.476467  0.738233  0.355900  
  0.809800  0.071567  0.355900  
  0.809800  0.404900  0.355900  
  0.809800  0.738233  0.355900  
  0.190200  0.261767  0.644100  
  0.190200  0.595100  0.644100  
  0.190200  0.928433  0.644100  
  0.523533  0.261767  0.644100  
  0.523533  0.595100  0.644100  
  0.523533  0.928433  0.644100  
  0.856867  0.261767  0.644100  
  0.856867  0.595100  0.644100  
  0.856867  0.928433  0.644100  
  0.194047  0.097023  0.126790  
  0.194047  0.430357  0.126790  
  0.194047  0.763690  0.126790  
  0.527380  0.097023  0.126790  
  0.527380  0.430357  0.126790  
  0.527380  0.763690  0.126790  
  0.860713  0.097023  0.126790  
  0.860713  0.430357  0.126790  
  0.860713  0.763690  0.126790  
  0.139287  0.236310  0.873210  
  0.139287  0.569643  0.873210  
  0.139287  0.902977  0.873210  
  0.472620  0.236310  0.873210  
  0.472620  0.569643  0.873210  
  0.472620  0.902977  0.873210  
  0.805953  0.236310  0.873210  
  0.805953  0.569643  0.873210  
  0.805953  0.902977  0.873210  
  0.085873  0.042937  0.613570  
  0.085873  0.376270  0.613570  
  0.085873  0.709603  0.613570  
  0.419207  0.042937  0.613570  
  0.419207  0.376270  0.613570  
  0.419207  0.709603  0.613570  
  0.752540  0.042937  0.613570  
  0.752540  0.376270  0.613570  
  0.752540  0.709603  0.613570  
  0.247460  0.290397  0.386430  
  0.247460  0.623730  0.386430  
  0.247460  0.957063  0.386430  
  0.580793  0.290397  0.386430  
  0.580793  0.623730  0.386430  
  0.580793  0.957063  0.386430  
  0.914127  0.290397  0.386430  
  0.914127  0.623730  0.386430  
  0.914127  0.957063  0.386430  
  