POSCAR Gen by MATLAB
1
  3.426000  0.000000  0.000000
  -1.713000  2.967003  0.000000
  1.713000  0.989001  8.389667
Tm 
  1 
Direct
  0.000000  0.000000  0.000000  
  