POSCAR Gen by MATLAB
1
  3.426000  0.000000  0.000000
  -1.713000  2.967003  0.000000
  1.713000  0.989001  8.389667
Mg Ga O 
  1 1 4 
Direct
  0.429400  0.214700  0.355900  
  0.570600  0.785300  0.644100  
  0.582140  0.291070  0.126790  
  0.417860  0.708930  0.873210  
  0.257620  0.128810  0.613570  
  0.742380  0.871190  0.386430  
  