POSCAR Gen by MATLAB
1
  5.741027  0.000000  0.000000
  2.870513  4.971875  0.000000
  0.000000  0.000000  15.000000
C 
  10 
Direct
  0.142857  0.142857  0.000000  
  0.142857  0.571429  0.000000  
  0.571429  0.142857  0.000000  
  0.571429  0.571429  0.000000  
  0.285716  0.285714  0.000000  
  0.285716  0.714285  0.000000  
  0.714287  0.285714  0.000000  
  0.714287  0.714285  0.000000  
  0.857143  0.857143  0.000000  
  1.000000  0.000000  0.000000  
  