POSCAR Gen by MATLAB
1
  6.561173  0.000000  0.000000
  3.280587  5.682143  0.000000
  0.000000  0.000000  15.000000
C 
  6 
Direct
  0.062500  0.062500  0.000000  
  0.250000  0.250000  0.000000  
  0.375000  0.375000  0.000000  
  0.625000  0.625000  0.000000  
  0.750000  0.750000  0.000000  
  0.937500  0.937500  0.000000  
  