Graphene
1.0
        2.4604399204         0.0000000000         0.0000000000
        1.2302199602         2.1308034756         0.0000000000
        0.0000000000         0.0000000000        15.0000000000
    C
    2
Direct
     0.3333333000         0.3333333330000         0.000000000
     0.666670024         0.666666670005         0.000000000
