POSCAR Gen by MATLAB
1
  4.920880  0.000000  0.000000
  2.460440  4.261607  0.000000
  0.000000  0.000000  15.000000
C 
  8 
Direct
  0.166667  0.166667  0.000000  
  0.166667  0.666667  0.000000  
  0.666667  0.166667  0.000000  
  0.666667  0.666667  0.000000  
  0.333335  0.333333  0.000000  
  0.333335  0.833333  0.000000  
  0.833335  0.333333  0.000000  
  0.833335  0.833333  0.000000  
  