POSCAR Gen by MATLAB
1
  2.460440  0.000000  0.000000
  1.230220  2.130803  0.000000
  0.000000  0.000000  15.000000
C 
  2 
Direct
  0.333333  0.333333  0.000000  
  0.666667  0.666667  0.000000  
  